 vasp.5.4.1 24Jun15 (build Apr 13 2016 13:07:19) complex

 executed on           IFC91_ompi date 2019.09.14  02:53:50

 INCAR:
 POTCAR:    PAW_PBE W_sv_GW 23Mar2010
 POTCAR:    PAW_PBE Te_GW 22Mar2012

 POTCAR:    PAW_PBE W_sv_GW 23Mar2010
   VRHFIN =W: 5p6s5d

   TITEL  = PAW_PBE W_sv_GW 23Mar2010
   POMASS =  183.850; ZVAL   =   14.000    mass and valenz
   ENMAX  =  317.132; ENMIN  =  237.849 eV

 POTCAR:    PAW_PBE Te_GW 22Mar2012
   VRHFIN =Te: s2p4

   TITEL  = PAW_PBE Te_GW 22Mar2012
   POMASS =  127.600; ZVAL   =    6.000    mass and valenz
   ENMAX  =  174.982; ENMIN  =  131.236 eV

  PAW_PBE W_sv_GW 23Mar2010             :
  PAW_PBE Te_GW 22Mar2012               :

 POSCAR:  W Te
  positions in cartesian coordinates
 exchange correlation table for  LEXCH =        8
   RHO(1)=    0.500       N(1)  =     2000
   RHO(2)=  100.500       N(2)  =     4000

 ion  position               nearest neighbor table
   1  0.167  0.333  0.359-   4 2.74   4 2.74   4 2.74   5 2.74   5 2.74   5 2.74
   2  0.833  0.667  0.500-   6 2.74   7 2.74   6 2.74   7 2.74   6 2.74   7 2.74
   3  0.167  0.333  0.641-   9 2.74   9 2.74   9 2.74   8 2.74   8 2.74   8 2.74
   4  0.833  0.667  0.395-   1 2.74   1 2.74   1 2.74   5 3.62
   5  0.833  0.667  0.323-   1 2.74   1 2.74   1 2.74   4 3.62
   6  0.167  0.333  0.536-   2 2.74   2 2.74   2 2.74   7 3.62
   7  0.167  0.333  0.464-   2 2.74   2 2.74   2 2.74   6 3.62
   8  0.833  0.667  0.677-   3 2.74   3 2.74   3 2.74   9 3.62
   9  0.833  0.667  0.605-   3 2.74   3 2.74   3 2.74   8 3.62

  LATTYP: Found a hexagonal cell.
 ALAT       =     3.5500762221
 C/A-ratio  =    14.0842046402

  Lattice vectors:

 A1 = (   3.5500762221,   0.0000000000,   0.0000000000)
 A2 = (  -1.7750381110,   3.0744561937,   0.0000000000)
 A3 = (   0.0000000000,   0.0000000000,  50.0000000000)

Analysis of symmetry for initial positions (statically):
 Subroutine PRICEL returns:
 Original cell was already a primitive cell.

 Routine SETGRP: Setting up the symmetry group for a
 hexagonal supercell.

 Subroutine GETGRP returns: Found 12 space group operations
 (whereof  4 operations were pure point group operations)
 out of a pool of 24 trial point group operations.

The static configuration has the point symmetry C_2v.
 The point group associated with its full space group is D_3h.

Analysis of symmetry for dynamics (positions and initial velocities):
 Subroutine PRICEL returns:
 Original cell was already a primitive cell.

[...]

The dynamic configuration has the point symmetry C_2v.
 The point group associated with its full space group is D_3h.

 Subroutine INISYM returns: Found 12 space group operations
 (whereof  4 operations are pure point group operations),
 and found     1 'primitive' translations

 KPOINTS: KPOINTS created by Atomic Simulation Env

Automatic generation of k-mesh.
Space group operators:
 irot       det(A)        alpha          n_x          n_y          n_z        tau_x        tau_y        tau_z
    1     1.000000     0.000001     1.000000     0.000000     0.000000     0.000000     0.000000     0.000000
    2    -1.000000   180.000000     0.000000     0.000000     1.000000     0.000000     0.000000     0.000000
    3    -1.000000   179.999999     1.000000     0.000000     0.000000     0.000000     0.000000     0.000000
    4     1.000000   180.000000     0.000000     1.000000     0.000000     0.000000     0.000000     0.000000
    5    -1.000000    60.000000     0.000000     0.000000    -1.000000     0.000000     0.500000     0.000000
    6     1.000000   120.000000     0.000000     0.000000    -1.000000     0.500000     0.500000     0.000000
    7     1.000000   120.000000     0.000000     0.000000     1.000000     0.000000     0.500000     0.000000
    8    -1.000000    60.000000     0.000000     0.000000     1.000000     0.500000     0.500000     0.000000
    9     1.000000   180.000000     0.866025    -0.500000     0.000000     0.500000     0.500000     0.000000
   10    -1.000000   180.000000     0.500000    -0.866025     0.000000     0.000000     0.500000     0.000000
   11    -1.000000   180.000000    -0.500000    -0.866025     0.000000     0.500000     0.500000     0.000000
   12     1.000000   180.000000     0.866025     0.500000     0.000000     0.000000     0.500000     0.000000

 Subroutine IBZKPT returns following result:

 Found     37 irreducible k-points:

 Following reciprocal coordinates:
            Coordinates               Weight
  0.000000  0.000000  0.000000      1.000000
  0.055556  0.000000  0.000000      6.000000
  0.111111  0.000000  0.000000      6.000000
  0.166667  0.000000  0.000000      6.000000
  0.222222  0.000000  0.000000      6.000000
  0.277778  0.000000  0.000000      6.000000
  0.333333  0.000000  0.000000      6.000000
  0.388889  0.000000  0.000000      6.000000
  0.444444  0.000000  0.000000      6.000000
  0.500000  0.000000  0.000000      3.000000
  0.055556  0.055556  0.000000      6.000000
  0.111111  0.055556  0.000000     12.000000
  0.166667  0.055556  0.000000     12.000000
  0.222222  0.055556  0.000000     12.000000
  0.277778  0.055556  0.000000     12.000000
  0.333333  0.055556  0.000000     12.000000
  0.388889  0.055556  0.000000     12.000000
  0.444444  0.055556  0.000000     12.000000
  0.111111  0.111111  0.000000      6.000000
  0.166667  0.111111  0.000000     12.000000
  0.222222  0.111111  0.000000     12.000000
  0.277778  0.111111  0.000000     12.000000
  0.333333  0.111111  0.000000     12.000000
  0.388889  0.111111  0.000000     12.000000
  0.444444  0.111111  0.000000      6.000000
  0.166667  0.166667  0.000000      6.000000
  0.222222  0.166667  0.000000     12.000000
  0.277778  0.166667  0.000000     12.000000
  0.333333  0.166667  0.000000     12.000000
  0.388889  0.166667  0.000000     12.000000
  0.222222  0.222222  0.000000      6.000000
  0.277778  0.222222  0.000000     12.000000
  0.333333  0.222222  0.000000     12.000000
  0.388889  0.222222  0.000000      6.000000
  0.277778  0.277778  0.000000      6.000000
  0.333333  0.277778  0.000000     12.000000
  0.333333  0.333333  0.000000      2.000000

 Following cartesian coordinates:
            Coordinates               Weight
  0.000000  0.000000  0.000000      1.000000
  0.015649  0.009035  0.000000      6.000000
  0.031298  0.018070  0.000000      6.000000
  0.046947  0.027105  0.000000      6.000000
  0.062596  0.036140  0.000000      6.000000
  0.078246  0.045175  0.000000      6.000000
  0.093895  0.054210  0.000000      6.000000
  0.109544  0.063245  0.000000      6.000000
  0.125193  0.072280  0.000000      6.000000
  0.140842  0.081315  0.000000      3.000000
  0.015649  0.027105  0.000000      6.000000
  0.031298  0.036140  0.000000     12.000000
  0.046947  0.045175  0.000000     12.000000
  0.062596  0.054210  0.000000     12.000000
  0.078246  0.063245  0.000000     12.000000
  0.093895  0.072280  0.000000     12.000000
  0.109544  0.081315  0.000000     12.000000
  0.125193  0.090350  0.000000     12.000000
  0.031298  0.054210  0.000000      6.000000
  0.046947  0.063245  0.000000     12.000000
  0.062596  0.072280  0.000000     12.000000
  0.078246  0.081315  0.000000     12.000000
  0.093895  0.090350  0.000000     12.000000
  0.109544  0.099385  0.000000     12.000000
  0.125193  0.108420  0.000000      6.000000
  0.046947  0.081315  0.000000      6.000000
  0.062596  0.090350  0.000000     12.000000
  0.078246  0.099385  0.000000     12.000000
  0.093895  0.108420  0.000000     12.000000
  0.109544  0.117455  0.000000     12.000000
  0.062596  0.108420  0.000000      6.000000
  0.078246  0.117455  0.000000     12.000000
  0.093895  0.126490  0.000000     12.000000
  0.109544  0.135525  0.000000      6.000000
  0.078246  0.135525  0.000000      6.000000
  0.093895  0.144560  0.000000     12.000000
  0.093895  0.162630  0.000000      2.000000

 TETIRR: Found    169 inequivalent tetrahedra from     1944

 Subroutine IBZKPT_HF returns following result:

 Found    324 k-points in 1st BZ
 the following    324 k-points will be used (e.g. in the exchange kernel)
 Following reciprocal coordinates:   # in IRBZ
  0.000000  0.000000  0.000000    0.00308642   1 t-inv F
  0.055556  0.000000  0.000000    0.00308642   2 t-inv F
  0.111111  0.000000  0.000000    0.00308642   3 t-inv F
  0.166667  0.000000  0.000000    0.00308642   4 t-inv F
  0.222222  0.000000  0.000000    0.00308642   5 t-inv F
  0.277778  0.000000  0.000000    0.00308642   6 t-inv F
  0.333333  0.000000  0.000000    0.00308642   7 t-inv F
  0.388889  0.000000  0.000000    0.00308642   8 t-inv F
  0.444444  0.000000  0.000000    0.00308642   9 t-inv F
  0.500000  0.000000  0.000000    0.00308642  10 t-inv F
  0.055556  0.055556  0.000000    0.00308642  11 t-inv F
  0.111111  0.055556  0.000000    0.00308642  12 t-inv F
  0.166667  0.055556  0.000000    0.00308642  13 t-inv F
  0.222222  0.055556  0.000000    0.00308642  14 t-inv F
  0.277778  0.055556  0.000000    0.00308642  15 t-inv F
  0.333333  0.055556  0.000000    0.00308642  16 t-inv F
  0.388889  0.055556  0.000000    0.00308642  17 t-inv F
  0.444444  0.055556  0.000000    0.00308642  18 t-inv F
  0.111111  0.111111  0.000000    0.00308642  19 t-inv F
  0.166667  0.111111  0.000000    0.00308642  20 t-inv F
  0.222222  0.111111  0.000000    0.00308642  21 t-inv F
  0.277778  0.111111  0.000000    0.00308642  22 t-inv F
  0.333333  0.111111  0.000000    0.00308642  23 t-inv F
  0.388889  0.111111  0.000000    0.00308642  24 t-inv F
  0.444444  0.111111  0.000000    0.00308642  25 t-inv F
  0.166667  0.166667  0.000000    0.00308642  26 t-inv F
  0.222222  0.166667  0.000000    0.00308642  27 t-inv F
  0.277778  0.166667  0.000000    0.00308642  28 t-inv F
  0.333333  0.166667  0.000000    0.00308642  29 t-inv F
  0.388889  0.166667  0.000000    0.00308642  30 t-inv F
  0.222222  0.222222  0.000000    0.00308642  31 t-inv F
  0.277778  0.222222  0.000000    0.00308642  32 t-inv F
  0.333333  0.222222  0.000000    0.00308642  33 t-inv F
  0.388889  0.222222  0.000000    0.00308642  34 t-inv F
  0.277778  0.277778  0.000000    0.00308642  35 t-inv F
  0.333333  0.277778  0.000000    0.00308642  36 t-inv F
  0.333333  0.333333  0.000000    0.00308642  37 t-inv F
 -0.055556  0.055556  0.000000    0.00308642   2 t-inv F
  0.000000 -0.055556 -0.000000    0.00308642   2 t-inv F
 -0.111111  0.111111  0.000000    0.00308642   3 t-inv F
  0.000000 -0.111111 -0.000000    0.00308642   3 t-inv F
 -0.166667  0.166667  0.000000    0.00308642   4 t-inv F
  0.000000 -0.166667 -0.000000    0.00308642   4 t-inv F
 -0.222222  0.222222  0.000000    0.00308642   5 t-inv F
  0.000000 -0.222222 -0.000000    0.00308642   5 t-inv F
 -0.277778  0.277778  0.000000    0.00308642   6 t-inv F
  0.000000 -0.277778 -0.000000    0.00308642   6 t-inv F
 -0.333333  0.333333  0.000000    0.00308642   7 t-inv F
  0.000000 -0.333333 -0.000000    0.00308642   7 t-inv F
 -0.388889  0.388889  0.000000    0.00308642   8 t-inv F
  0.000000 -0.388889 -0.000000    0.00308642   8 t-inv F
 -0.444444  0.444444  0.000000    0.00308642   9 t-inv F
  0.000000 -0.444444 -0.000000    0.00308642   9 t-inv F
[...]
   Te        408.977          4.237         38.262          1.016
   Te        401.518          4.224         37.911          1.007
   Te        408.971          4.237         38.262          1.016
   Te        408.971          4.237         38.262          1.016
   Te        401.518          4.224         37.911          1.007
   Te        408.977          4.237         38.262          1.016

  IVDW =  20
  VDW_RADIUS =    50.000 A
  VDW_IDAMPF =  0
  VDW_S6 =     1.000
  VDW_SR =     0.940
  VDW_D =    20.000
  LVDW_EWALD = T
  Edisp (eV):   -2.69589

  FORCE on cell =-STRESS in cart. coord.  units (eV):
  Direction    XX          YY          ZZ          XY          YZ          ZX
  Alpha Z    67.94449    67.94449    67.94449
  Ewald   72862.28973 72862.28973-76614.08439    -0.00000     0.00000     0.00000
  Hartree 74339.51788 74339.51788-73528.06960    -0.00000    -0.00000    -0.00000
  E(xc)    -390.49738  -390.49738  -391.86164     0.00000     0.00000     0.00000
  Local  ************************148723.42800    -0.00005     0.00000    -0.00000
  n-local   384.14199   384.85812   401.65261     4.17633    -0.00000    -0.00000
  augment  -258.01452  -258.01448  -262.46340     0.00004    -0.00000     0.00000
  Kinetic  1587.27081  1594.16720  1600.08896   -34.03297    -0.00000    -0.00000
  Fock        0.00000     0.00000     0.00000     0.00000     0.00000     0.00000
  vdW        -2.68315    -2.68315    -2.50108     0.00000     0.00000     0.00000
  Total      -6.90597    -6.90597    -5.86606     0.00000     0.00000     0.00000
  in kB     -20.27494   -20.27494   -17.22189     0.00000     0.00000     0.00000

 VOLUME and BASIS-vectors are now :
  energy-cutoff  :      317.13
  volume of cell :      545.73
      direct lattice vectors                 reciprocal lattice vectors
     3.550076222  0.000000000  0.000000000     0.281684093  0.162630387  0.000000000
    -1.775038111  3.074456194  0.000000000     0.000000000  0.325260774  0.000000000
     0.000000000  0.000000000 50.000000000     0.000000000  0.000000000  0.020000000

  length of vectors
     3.550076222  3.550076222 50.000000000     0.325260774  0.325260774  0.020000000

 FORCES acting on ions
    electron-ion (+dipol)            ewald-force                    non-local-force                 convergence-correction
   -.105E-06 0.815E-07 0.348E+04   0.863E-11 -.500E-11 -.348E+04   -.347E-17 0.347E-17 0.506E-02   -.398E-10 0.231E-10 -.439E-06
   0.801E-07 -.461E-07 0.322E-10   -.862E-11 0.507E-11 0.114E-12   -.520E-17 0.000E+00 0.000E+00   -.661E-11 0.373E-11 0.139E-12
   -.123E-06 0.502E-07 -.348E+04   0.863E-11 -.500E-11 0.348E+04   0.173E-17 0.347E-17 -.506E-02   -.399E-10 0.231E-10 0.439E-06
   -.157E-06 0.152E-06 0.827E+03   -.439E-11 0.255E-11 -.821E+03   0.173E-17 -.347E-17 -.520E+01   -.236E-12 0.140E-12 -.330E-05
   -.253E-06 0.203E-07 0.215E+04   -.432E-11 0.251E-11 -.216E+04   0.173E-16 0.694E-17 0.525E+01   0.534E-12 -.306E-12 0.117E-05
   0.249E-06 -.636E-07 -.664E+03   0.439E-11 -.257E-11 0.669E+03   0.000E+00 0.347E-17 -.516E+01   -.338E-11 0.194E-11 0.324E-05
   0.179E-06 -.183E-06 0.664E+03   0.439E-11 -.257E-11 -.669E+03   0.173E-17 0.000E+00 0.516E+01   -.338E-11 0.194E-11 -.324E-05
   -.144E-06 0.209E-06 -.215E+04   -.432E-11 0.251E-11 0.216E+04   0.173E-16 0.694E-17 -.525E+01   0.530E-12 -.307E-12 -.117E-05
   -.210E-06 0.605E-07 -.827E+03   -.440E-11 0.255E-11 0.821E+03   0.694E-17 0.347E-17 0.520E+01   -.229E-12 0.132E-12 0.330E-05
   -.483E-06 0.279E-06 0.105E-09   -.164E-13 0.482E-13 0.455E-12   0.382E-16 0.243E-16 0.000E+00   -.925E-10 0.534E-10 0.242E-11

 POSITION                                       TOTAL-FORCE (eV/Angst)
     -0.00000      1.02482     17.94000        -0.000000     -0.000000      0.022790
      1.77504      2.04964     25.00000         0.000000     -0.000000      0.000000
     -0.00000      1.02482     32.06000         0.000000      0.000000     -0.022790
      1.77504      2.04964     19.75196         0.000000     -0.000000     -0.082467
      1.77504      2.04964     16.12804        -0.000000     -0.000000      0.052364
     -0.00000      1.02482     26.81196         0.000000     -0.000000     -0.099300
     -0.00000      1.02482     23.18804        -0.000000      0.000000      0.099300
      1.77504      2.04964     33.87196        -0.000000      0.000000     -0.052364
      1.77504      2.04964     30.24804         0.000000     -0.000000      0.082467
    total drift:                               -0.000000      0.000000      0.000000

  FREE ENERGIE OF THE ION-ELECTRON SYSTEM (eV)
  free  energy   TOTEN  =       -67.17230771 eV

  energy  without entropy=      -67.17230771  energy(sigma->0) =      -67.17230771

 Linear response reoptimize wavefunctions
 Linear response G [H, r] |phi>, progress :
  Direction:   1

[...]

  free energy    TOTEN  =      -380.12225602 eV

[...]

 Linear response G [H, r] |phi>, progress :
  Direction:   2

[...]

 Linear response G [H, r] |phi>, progress :
  Direction:   3

[...]

  free energy    TOTEN  =      -425.16551301 eV

[...]

 Linear response to external field (no local field effect), progress :
  Direction:   1
  LATTYP: Found a hexagonal cell.
 ALAT       =     3.5500762221
 C/A-ratio  =    14.0842046402

[...]

The dynamic configuration has the point symmetry C_1h.

[...]

 Free energy of the ion-electron system (eV)
  -Hartree energ DENC   =         0.00000000
  -V(xc)+E(xc)   XCENC  =         0.00000000
  PAW double counting   =         0.00000000        0.00000000
  entropy T*S    EENTRO =         0.00000000
  eigenvalues    EBANDS =        -7.52467076
  free energy    TOTEN  =        -7.52467076 eV

  energy without entropy =       -7.52467076

[...]

 change of polarisation eV/A/(eV/A) component  1 :    23.477    -0.847    -0.000
 dielectric tensor                  component  1 :     8.785    -0.281    -0.000

[...]

The dynamic configuration has the point symmetry C_2v.

[...]

 Linear response to external field (no local field effect), progress :
  Direction:   3
  LATTYP: Found a hexagonal cell.
 ALAT       =     3.5500762221
 C/A-ratio  =    14.0842046402

[...]

The dynamic configuration has the point symmetry C_1h.
 The point group associated with its full space group is C_3v.

[...]

 HEAD OF MICROSCOPIC STATIC DIELECTRIC TENSOR (INDEPENDENT PARTICLE, excluding Hartree and local field effects)
           8.782999     0.000000     0.000000
           0.000000     8.782999    -0.000000
           0.000000    -0.000000     5.544491

 Linear response to external field, progress :
  Direction:   1
  LATTYP: Found a hexagonal cell.
 ALAT       =     3.5500762221
 C/A-ratio  =    14.0842046402

[...]

The dynamic configuration has the point symmetry C_1h.

[...]

  Parameters of vdW forcefield:
            C6ts              R0ts           ALPHAts        RELVOL
            (au)              (au)            (au)
   W         919.829          4.138         73.991          1.042
   W         923.359          4.140         74.133          1.044
   W         919.829          4.138         73.991          1.042
   Te        408.977          4.237         38.262          1.016
   Te        401.518          4.224         37.911          1.007
   Te        408.971          4.237         38.262          1.016
   Te        408.971          4.237         38.262          1.016
   Te        401.518          4.224         37.911          1.007
   Te        408.977          4.237         38.262          1.016
  Edisp (eV):   -2.69589

[...]

 PIEZOELECTRIC TENSOR FIELD DIRECTION 1  (e Angst)
    -0.01218 -0.81160  0.00000           ( -0.00002  0.13127  0.00000)
    -0.81170  0.00921  0.00000           (  0.13127  0.00009  0.00000)
     0.00000  0.00000 -0.00101           (  0.00000  0.00000  0.00003)

 PIEZOELECTRIC TENSOR FIELD DIRECTION 1  (C/m^2)
    -0.00036 -0.02383  0.00000
    -0.02383  0.00027  0.00000
     0.00000  0.00000 -0.00003

      POSITION         DIRECTION 1           BORN EFFECTIVE CHARGE    (rigid.aug.   ionic)
     -0.00000      1.02482     17.94000    -2.51512 -0.00107  0.00002 (  1.94634 14.00000)
      1.77504      2.04964     25.00000    -2.51944  0.00111  0.00000 (  1.94639 14.00000)
     -0.00000      1.02482     32.06000    -2.51512 -0.00107 -0.00002 (  1.94634 14.00000)
      1.77504      2.04964     19.75196     1.28191 -0.00027 -0.00045 (  1.18311  6.00000)
      1.77504      2.04964     16.12804     1.28013 -0.00029  0.00028 (  1.18266  6.00000)
     -0.00000      1.02482     26.81196     1.28363  0.00027 -0.00044 (  1.18307  6.00000)
     -0.00000      1.02482     23.18804     1.28363  0.00027  0.00044 (  1.18307  6.00000)
      1.77504      2.04964     33.87196     1.28013 -0.00029 -0.00028 (  1.18266  6.00000)
      1.77504      2.04964     30.24804     1.28191 -0.00027  0.00045 (  1.18311  6.00000)
    total drift (improves with k-points):   0.14165 -0.00159 -0.00000

[...]

The dynamic configuration has the point symmetry C_2v.

[...]

 Linear response to external field, progress :
  Direction:   3
  LATTYP: Found a hexagonal cell.
 ALAT       =     3.5500762221
 C/A-ratio  =    14.0842046402

[...]

The dynamic configuration has the point symmetry C_1h.
 The point group associated with its full space group is C_3v.

[...]

----------------------------------------- Iteration    3(  24)  ---------------------------------------

 Broyden mixing:
  rms(total) = 0.87875E-06    rms(broyden)= 0.87873E-06
  rms(prec ) = 0.91535E-06
  weight for this iteration     100.00

 eigenvalues of (default mixing * dielectric matrix)
  average eigenvalue GAMMA=   2.4042
  9.3978  7.8954  5.6574  4.0868  3.0167  3.0167  2.4374  2.4374  1.9143  1.9143
  1.6039  0.9471  0.9471  1.0813  1.0055  1.0055  0.9760  0.6322  0.7816  0.7816
  0.7333  0.6226

 Free energy of the ion-electron system (eV)
  -Hartree energ DENC   =        -0.75819896
  -V(xc)+E(xc)   XCENC  =         0.01098047
  PAW double counting   =         0.02046287       -0.02021031
  entropy T*S    EENTRO =         0.00000000
  eigenvalues    EBANDS =        -0.18889341
  free energy    TOTEN  =        -0.93585935 eV

  energy without entropy =       -0.93585935

------------------------ aborting loop because EDIFF is reached ----------------------------------------

 change of polarisation eV/A/(eV/A) component  3 :    -0.000    -0.000     1.838
 dielectric tensor                  component  3 :    -0.000    -0.000     1.609

[...]

  Hirshfeld charges:
            ion         q(e)
      1     W           0.216
      2     W           0.215
      3     W           0.216
      4     Te         -0.108
      5     Te         -0.108
      6     Te         -0.107
      7     Te         -0.107
      8     Te         -0.108
      9     Te         -0.108

  Tkatchenko/Scheffler method for vdW energy calculation

  Parameters of vdW forcefield:
            C6ts              R0ts           ALPHAts        RELVOL
            (au)              (au)            (au)
   W         919.829          4.138         73.991          1.042
   W         923.359          4.140         74.133          1.044
   W         919.829          4.138         73.991          1.042
   Te        408.976          4.237         38.262          1.016
   Te        401.518          4.224         37.911          1.007
   Te        408.971          4.237         38.262          1.016
   Te        408.971          4.237         38.262          1.016
   Te        401.517          4.224         37.911          1.007
   Te        408.977          4.237         38.262          1.016
  Edisp (eV):   -2.69589

 PIEZOELECTRIC TENSOR FIELD DIRECTION 3  (e Angst)
     0.00010 -0.00000  0.00000           (  0.00000  0.00000  0.00000)
    -0.00000  0.00010  0.00000           (  0.00000  0.00000  0.00000)
     0.00000  0.00000  0.00004           (  0.00000  0.00000 -0.00000)

 PIEZOELECTRIC TENSOR FIELD DIRECTION 3  (C/m^2)
     0.00000 -0.00000  0.00000
    -0.00000  0.00000  0.00000
     0.00000  0.00000  0.00000

      POSITION         DIRECTION 3           BORN EFFECTIVE CHARGE    (rigid.aug.   ionic)
     -0.00000      1.02482     17.94000    -0.00000  0.00000-20.00489 (  1.94634 14.00000)
      1.77504      2.04964     25.00000    -0.00000  0.00000 -1.47120 (  1.94639 14.00000)
     -0.00000      1.02482     32.06000     0.00000 -0.00000-20.00487 (  1.94634 14.00000)
      1.77504      2.04964     19.75196     0.00000 -0.00000 -0.04309 (  1.18311  6.00000)
      1.77504      2.04964     16.12804     0.00000  0.00000  1.76200 (  1.18266  6.00000)
     -0.00000      1.02482     26.81196     0.00000 -0.00000  0.12674 (  1.18307  6.00000)
     -0.00000      1.02482     23.18804     0.00000 -0.00000  0.12675 (  1.18307  6.00000)
      1.77504      2.04964     33.87196     0.00000  0.00000  1.76200 (  1.18266  6.00000)
      1.77504      2.04964     30.24804     0.00000 -0.00000 -0.04309 (  1.18311  6.00000)
    total drift (improves with k-points):   0.00000 -0.00000-37.78966

[...]

 MACROSCOPIC STATIC DIELECTRIC TENSOR (including local field effects in DFT)
           8.489864     0.000000     0.000000
           0.000000     8.489864     0.000000
           0.000000     0.000000     1.609314

  LATTYP: Found a hexagonal cell.
 ALAT       =     3.5500762221
 C/A-ratio  =    14.0842046402

  Lattice vectors:

 A1 = (   3.5500762221,   0.0000000000,   0.0000000000)
 A2 = (  -1.7750381110,   3.0744561937,   0.0000000000)
 A3 = (   0.0000000000,   0.0000000000,  50.0000000000)

Analysis of symmetry for initial positions (statically):
 Subroutine PRICEL returns:
 Original cell was already a primitive cell.

[...]

The static configuration has the point symmetry C_2v.
 The point group associated with its full space group is D_3h.

Analysis of symmetry for dynamics (positions and initial velocities):
 Subroutine PRICEL returns:
 Original cell was already a primitive cell.

 Routine SETGRP: Setting up the symmetry group for a
 hexagonal supercell.

 Subroutine GETGRP returns: Found 12 space group operations
 (whereof  4 operations were pure point group operations)
 out of a pool of 24 trial point group operations.

The dynamic configuration has the point symmetry C_2v.
 The point group associated with its full space group is D_3h.

 Subroutine INISYM returns: Found 12 space group operations
 (whereof  4 operations are pure point group operations),
 and found     1 'primitive' translations

 MACROSCOPIC STATIC DIELECTRIC TENSOR (including local field effects in DFT)
           8.489864     0.000000     0.000000
           0.000000     8.489864     0.000000
           0.000000     0.000000     1.609314

 PIEZOELECTRIC TENSOR  for field in x, y, z        (e  Angst)
          XX          YY          ZZ          XY          YZ          ZX
  x    -0.01218     0.00921    -0.00101    -0.81170     0.00000     0.00000
  y    -0.82235     0.82741     0.00404     0.00000     0.00000     0.00000
  z     0.00010     0.00010     0.00004    -0.00000     0.00000     0.00000

 PIEZOELECTRIC TENSOR  for field in x, y, z        (C/m^2)
          XX          YY          ZZ          XY          YZ          ZX
  x     0.00000    -0.00000     0.00000    -0.02402     0.00000     0.00000
  y    -0.02402     0.02402     0.00000    -0.00000     0.00000     0.00000
  z     0.00000     0.00000     0.00000     0.00000    -0.00000    -0.00000

 BORN EFFECTIVE CHARGES (in e, cummulative output)
 ion    1
    1    -2.51512    -0.00107     0.00002
    2    -0.00000    -2.51588    -0.00007
    3    -0.00000     0.00000   -20.00489
 ion    2
    1    -2.51944     0.00111     0.00000
    2    -0.00000    -2.51879     0.00000
    3    -0.00000     0.00000    -1.47120
 ion    3
    1    -2.51512    -0.00107    -0.00002
    2    -0.00000    -2.51588     0.00007
    3     0.00000    -0.00000   -20.00487
 ion    4
    1     1.28191    -0.00027    -0.00045
    2     0.00000     1.28230     0.00123
    3     0.00000    -0.00000    -0.04309
 ion    5
    1     1.28013    -0.00029     0.00028
    2     0.00000     1.28043    -0.00079
    3     0.00000     0.00000     1.76200
 ion    6
    1     1.28363     0.00027    -0.00044
    2     0.00000     1.28323     0.00117
    3     0.00000    -0.00000     0.12674
 ion    7
    1     1.28363     0.00027     0.00044
    2     0.00000     1.28323    -0.00117
    3     0.00000    -0.00000     0.12675
 ion    8
    1     1.28013    -0.00029    -0.00028
    2     0.00000     1.28043     0.00079
    3     0.00000     0.00000     1.76200
 ion    9
    1     1.28191    -0.00027     0.00045
    2     0.00000     1.28230    -0.00123
    3     0.00000    -0.00000    -0.04309

 writing wavefunctions
 BZINTS: Fermi energy:  0.689015; 78.000000 electrons
         Band energy:***********;  BLOECHL correction:  0.000000