 vasp.5.4.1 24Jun15 (build Apr 13 2016 13:07:19) complex

 executed on           IFC91_ompi date 2019.09.14  00:26:40

 INCAR:
 POTCAR:    PAW_PBE W_sv_GW 23Mar2010
 POTCAR:    PAW_PBE Se_GW 20Mar2012

 POTCAR:    PAW_PBE W_sv_GW 23Mar2010
   VRHFIN =W: 5p6s5d

   TITEL  = PAW_PBE W_sv_GW 23Mar2010
   POMASS =  183.850; ZVAL   =   14.000    mass and valenz
   ENMAX  =  317.132; ENMIN  =  237.849 eV

 POTCAR:    PAW_PBE Se_GW 20Mar2012
   VRHFIN =Se: s2p4

   TITEL  = PAW_PBE Se_GW 20Mar2012
   POMASS =   78.960; ZVAL   =    6.000    mass and valenz
   ENMAX  =  211.555; ENMIN  =  158.666 eV

  PAW_PBE W_sv_GW 23Mar2010             :
  PAW_PBE Se_GW 20Mar2012               :

 POSCAR:  W Se
  positions in cartesian coordinates
 exchange correlation table for  LEXCH =        8
   RHO(1)=    0.500       N(1)  =     2000
   RHO(2)=  100.500       N(2)  =     4000

 ion  position               nearest neighbor table
   1  0.167  0.333  0.175-   7 2.55   8 2.55   7 2.55   8 2.55   7 2.55   8 2.55
   2  0.833  0.667  0.305-   9 2.55  10 2.55   9 2.55  10 2.55   9 2.55  10 2.55
   3  0.167  0.333  0.435-  11 2.55  12 2.55  11 2.55  12 2.55  11 2.55  12 2.55
   4  0.833  0.667  0.565-  13 2.55  14 2.55  13 2.55  14 2.55  13 2.55  14 2.55
   5  0.167  0.333  0.695-  15 2.55  16 2.55  15 2.55  16 2.55  15 2.55  16 2.55
   6  0.833  0.667  0.825-  17 2.55  18 2.55  17 2.55  18 2.55  17 2.55  18 2.55
   7  0.833  0.667  0.209-   1 2.55   1 2.55   1 2.55
   8  0.833  0.667  0.142-   1 2.55   1 2.55   1 2.55
   9  0.167  0.333  0.339-   2 2.55   2 2.55   2 2.55
  10  0.167  0.333  0.272-   2 2.55   2 2.55   2 2.55
  11  0.833  0.667  0.469-   3 2.55   3 2.55   3 2.55
  12  0.833  0.667  0.402-   3 2.55   3 2.55   3 2.55
  13  0.167  0.333  0.598-   4 2.55   4 2.55   4 2.55
  14  0.167  0.333  0.531-   4 2.55   4 2.55   4 2.55
  15  0.833  0.667  0.728-   5 2.55   5 2.55   5 2.55
  16  0.833  0.667  0.661-   5 2.55   5 2.55   5 2.55
  17  0.167  0.333  0.858-   6 2.55   6 2.55   6 2.55
  18  0.167  0.333  0.791-   6 2.55   6 2.55   6 2.55

  LATTYP: Found a hexagonal cell.
 ALAT       =     3.3190066245
 C/A-ratio  =    15.0647484797

  Lattice vectors:

 A1 = (   3.3190066245,   0.0000000000,   0.0000000000)
 A2 = (  -1.6595033122,   2.8743440521,   0.0000000000)
 A3 = (   0.0000000000,   0.0000000000,  50.0000000000)

Analysis of symmetry for initial positions (statically):
 Subroutine PRICEL returns:
 Original cell was already a primitive cell.

 Routine SETGRP: Setting up the symmetry group for a
 hexagonal supercell.

 Subroutine GETGRP returns: Found 12 space group operations
 (whereof  4 operations were pure point group operations)
 out of a pool of 24 trial point group operations.

The static configuration has the point symmetry C_2h.
 The point group associated with its full space group is D_3d.

Analysis of symmetry for dynamics (positions and initial velocities):
 Subroutine PRICEL returns:
 Original cell was already a primitive cell.

[...]

The dynamic configuration has the point symmetry C_2h.
 The point group associated with its full space group is D_3d.

 Subroutine INISYM returns: Found 12 space group operations
 (whereof  4 operations are pure point group operations),
 and found     1 'primitive' translations

 KPOINTS: KPOINTS created by Atomic Simulation Env

Automatic generation of k-mesh.
Space group operators:
 irot       det(A)        alpha          n_x          n_y          n_z        tau_x        tau_y        tau_z
    1     1.000000     0.000000     1.000000     0.000000     0.000000     0.000000     0.000000     0.000000
    2    -1.000000     0.000000     1.000000     0.000000     0.000000     0.000000     0.000000     0.000000
    3     1.000000   180.000000     1.000000     0.000000     0.000000     0.000000     0.000000     0.000000
    4    -1.000000   180.000000     1.000000     0.000000     0.000000     0.000000     0.000000     0.000000
    5     1.000000   120.000000     0.000000     0.000000    -1.000000     0.500000     0.500000     0.000000
    6    -1.000000   120.000000     0.000000     0.000000    -1.000000     0.500000     0.500000     0.000000
    7     1.000000   120.000000     0.000000     0.000000     1.000000     0.000000     0.500000     0.000000
    8    -1.000000   120.000000     0.000000     0.000000     1.000000     0.000000     0.500000     0.000000
    9     1.000000   180.000000     0.500000    -0.866025     0.000000    -0.000000     0.500000     0.000000
   10    -1.000000   180.000000     0.500000    -0.866025     0.000000    -0.000000     0.500000     0.000000
   11     1.000000   180.000000    -0.500000    -0.866025     0.000000     0.500000     0.500000     0.000000
   12    -1.000000   180.000000    -0.500000    -0.866025     0.000000     0.500000     0.500000     0.000000

 Subroutine IBZKPT returns following result:

 Found     37 irreducible k-points:

 Following reciprocal coordinates:
            Coordinates               Weight
  0.000000  0.000000  0.000000      1.000000
  0.055556  0.000000  0.000000      6.000000
  0.111111  0.000000  0.000000      6.000000
  0.166667  0.000000  0.000000      6.000000
  0.222222  0.000000  0.000000      6.000000
  0.277778  0.000000  0.000000      6.000000
  0.333333  0.000000  0.000000      6.000000
  0.388889  0.000000  0.000000      6.000000
  0.444444  0.000000  0.000000      6.000000
  0.500000  0.000000  0.000000      3.000000
  0.055556  0.055556  0.000000      6.000000
  0.111111  0.055556  0.000000     12.000000
  0.166667  0.055556  0.000000     12.000000
  0.222222  0.055556  0.000000     12.000000
  0.277778  0.055556  0.000000     12.000000
  0.333333  0.055556  0.000000     12.000000
  0.388889  0.055556  0.000000     12.000000
  0.444444  0.055556  0.000000     12.000000
  0.111111  0.111111  0.000000      6.000000
  0.166667  0.111111  0.000000     12.000000
  0.222222  0.111111  0.000000     12.000000
  0.277778  0.111111  0.000000     12.000000
  0.333333  0.111111  0.000000     12.000000
  0.388889  0.111111  0.000000     12.000000
  0.444444  0.111111  0.000000      6.000000
  0.166667  0.166667  0.000000      6.000000
  0.222222  0.166667  0.000000     12.000000
  0.277778  0.166667  0.000000     12.000000
  0.333333  0.166667  0.000000     12.000000
  0.388889  0.166667  0.000000     12.000000
  0.222222  0.222222  0.000000      6.000000
  0.277778  0.222222  0.000000     12.000000
  0.333333  0.222222  0.000000     12.000000
  0.388889  0.222222  0.000000      6.000000
  0.277778  0.277778  0.000000      6.000000
  0.333333  0.277778  0.000000     12.000000
  0.333333  0.333333  0.000000      2.000000

 Following cartesian coordinates:
            Coordinates               Weight
  0.000000  0.000000  0.000000      1.000000
  0.016739  0.009664  0.000000      6.000000
  0.033477  0.019328  0.000000      6.000000
  0.050216  0.028992  0.000000      6.000000
  0.066954  0.038656  0.000000      6.000000
  0.083693  0.048320  0.000000      6.000000
  0.100432  0.057984  0.000000      6.000000
  0.117170  0.067648  0.000000      6.000000
  0.133909  0.077312  0.000000      6.000000
  0.150647  0.086976  0.000000      3.000000
  0.016739  0.028992  0.000000      6.000000
  0.033477  0.038656  0.000000     12.000000
  0.050216  0.048320  0.000000     12.000000
  0.066954  0.057984  0.000000     12.000000
  0.083693  0.067648  0.000000     12.000000
  0.100432  0.077312  0.000000     12.000000
  0.117170  0.086976  0.000000     12.000000
  0.133909  0.096640  0.000000     12.000000
  0.033477  0.057984  0.000000      6.000000
  0.050216  0.067648  0.000000     12.000000
  0.066954  0.077312  0.000000     12.000000
  0.083693  0.086976  0.000000     12.000000
  0.100432  0.096640  0.000000     12.000000
  0.117170  0.106304  0.000000     12.000000
  0.133909  0.115968  0.000000      6.000000
  0.050216  0.086976  0.000000      6.000000
  0.066954  0.096640  0.000000     12.000000
  0.083693  0.106304  0.000000     12.000000
  0.100432  0.115968  0.000000     12.000000
  0.117170  0.125633  0.000000     12.000000
  0.066954  0.115968  0.000000      6.000000
  0.083693  0.125633  0.000000     12.000000
  0.100432  0.135297  0.000000     12.000000
  0.117170  0.144961  0.000000      6.000000
  0.083693  0.144961  0.000000      6.000000
  0.100432  0.154625  0.000000     12.000000
  0.100432  0.173953  0.000000      2.000000

 TETIRR: Found    169 inequivalent tetrahedra from     1944

 Subroutine IBZKPT_HF returns following result:

 Found    324 k-points in 1st BZ
 the following    324 k-points will be used (e.g. in the exchange kernel)
 Following reciprocal coordinates:   # in IRBZ
  0.000000  0.000000  0.000000    0.00308642   1 t-inv F
  0.055556  0.000000  0.000000    0.00308642   2 t-inv F
  0.111111  0.000000  0.000000    0.00308642   3 t-inv F
  0.166667  0.000000  0.000000    0.00308642   4 t-inv F
  0.222222  0.000000  0.000000    0.00308642   5 t-inv F
  0.277778  0.000000  0.000000    0.00308642   6 t-inv F
  0.333333  0.000000  0.000000    0.00308642   7 t-inv F
  0.388889  0.000000  0.000000    0.00308642   8 t-inv F
  0.444444  0.000000  0.000000    0.00308642   9 t-inv F
  0.500000  0.000000  0.000000    0.00308642  10 t-inv F
  0.055556  0.055556  0.000000    0.00308642  11 t-inv F
  0.111111  0.055556  0.000000    0.00308642  12 t-inv F
  0.166667  0.055556  0.000000    0.00308642  13 t-inv F
  0.222222  0.055556  0.000000    0.00308642  14 t-inv F
  0.277778  0.055556  0.000000    0.00308642  15 t-inv F
  0.333333  0.055556  0.000000    0.00308642  16 t-inv F
  0.388889  0.055556  0.000000    0.00308642  17 t-inv F
  0.444444  0.055556  0.000000    0.00308642  18 t-inv F
  0.111111  0.111111  0.000000    0.00308642  19 t-inv F
  0.166667  0.111111  0.000000    0.00308642  20 t-inv F
  0.222222  0.111111  0.000000    0.00308642  21 t-inv F
  0.277778  0.111111  0.000000    0.00308642  22 t-inv F
  0.333333  0.111111  0.000000    0.00308642  23 t-inv F
  0.388889  0.111111  0.000000    0.00308642  24 t-inv F
  0.444444  0.111111  0.000000    0.00308642  25 t-inv F
  0.166667  0.166667  0.000000    0.00308642  26 t-inv F
  0.222222  0.166667  0.000000    0.00308642  27 t-inv F
  0.277778  0.166667  0.000000    0.00308642  28 t-inv F
  0.333333  0.166667  0.000000    0.00308642  29 t-inv F
  0.388889  0.166667  0.000000    0.00308642  30 t-inv F
  0.222222  0.222222  0.000000    0.00308642  31 t-inv F
  0.277778  0.222222  0.000000    0.00308642  32 t-inv F
  0.333333  0.222222  0.000000    0.00308642  33 t-inv F
  0.388889  0.222222  0.000000    0.00308642  34 t-inv F
  0.277778  0.277778  0.000000    0.00308642  35 t-inv F
  0.333333  0.277778  0.000000    0.00308642  36 t-inv F
  0.333333  0.333333  0.000000    0.00308642  37 t-inv F
 -0.055556 -0.000000 -0.000000    0.00308642   2 t-inv F
  0.055556 -0.055556 -0.000000    0.00308642   2 t-inv F
 -0.055556  0.055556  0.000000    0.00308642   2 t-inv F
  0.000000 -0.055556  0.000000    0.00308642   2 t-inv F
 -0.000000  0.055556 -0.000000    0.00308642   2 t-inv F
 -0.111111 -0.000000 -0.000000    0.00308642   3 t-inv F
  0.111111 -0.111111 -0.000000    0.00308642   3 t-inv F
[...]
     -0.00000      0.95811     39.54572        -0.000000      0.000000      0.102435
    total drift:                                0.000000     -0.000000      0.000000

  FREE ENERGIE OF THE ION-ELECTRON SYSTEM (eV)
  free  energy   TOTEN  =      -147.09944632 eV

  energy  without entropy=     -147.09944632  energy(sigma->0) =     -147.09944632

 Linear response reoptimize wavefunctions
 Linear response G [H, r] |phi>, progress :
  Direction:   1

[...]

  free energy    TOTEN  =      -734.51770663 eV

[...]

 Linear response G [H, r] |phi>, progress :
  Direction:   2

[...]

 Linear response G [H, r] |phi>, progress :
  Direction:   3

[...]

  free energy    TOTEN  =      -722.86352845 eV

[...]

 Linear response to external field (no local field effect), progress :
  Direction:   1
  LATTYP: Found a hexagonal cell.
 ALAT       =     3.3190066245
 C/A-ratio  =    15.0647484797

[...]

The dynamic configuration has the point symmetry C_2 .

[...]

 Free energy of the ion-electron system (eV)
  -Hartree energ DENC   =         0.00000000
  -V(xc)+E(xc)   XCENC  =         0.00000000
  PAW double counting   =         0.00000000        0.00000000
  entropy T*S    EENTRO =         0.00000000
  eigenvalues    EBANDS =       -12.72755892
  free energy    TOTEN  =       -12.72755892 eV

  energy without entropy =      -12.72755892

[...]

 change of polarisation eV/A/(eV/A) component  1 :    31.474    -3.396    -0.076
 dielectric tensor                  component  1 :    12.940    -1.288    -0.029

[...]

The dynamic configuration has the point symmetry C_1h.

[...]

 Linear response to external field (no local field effect), progress :
  Direction:   3
  LATTYP: Found a hexagonal cell.
 ALAT       =     3.3190066245
 C/A-ratio  =    15.0647484797

[...]

The dynamic configuration has the point symmetry C_1h.
 The point group associated with its full space group is C_3v.

[...]

 HEAD OF MICROSCOPIC STATIC DIELECTRIC TENSOR (INDEPENDENT PARTICLE, excluding Hartree and local field effects)
          12.717659     0.000000    -0.000000
          -0.000000    12.717659     0.000000
          -0.000000     0.000000     8.320095

 Linear response to external field, progress :
  Direction:   1
  LATTYP: Found a hexagonal cell.
 ALAT       =     3.3190066245
 C/A-ratio  =    15.0647484797

[...]

The dynamic configuration has the point symmetry C_2 .

[...]

  Parameters of vdW forcefield:
            C6ts              R0ts           ALPHAts        RELVOL
            (au)              (au)            (au)
   W         896.488          4.120         73.047          1.028
   W         902.564          4.125         73.294          1.032
   W         902.607          4.125         73.295          1.032
   W         902.607          4.125         73.295          1.032
   W         902.564          4.125         73.294          1.032
   W         896.488          4.120         73.047          1.028
   Se        213.931          4.057         25.233          1.009
   Se        209.424          4.042         24.966          0.999
   Se        213.940          4.057         25.233          1.009
   Se        213.925          4.057         25.232          1.009
   Se        213.940          4.057         25.233          1.009
   Se        213.940          4.057         25.233          1.009
   Se        213.940          4.057         25.233          1.009
   Se        213.940          4.057         25.233          1.009
   Se        213.925          4.057         25.232          1.009
   Se        213.940          4.057         25.233          1.009
   Se        209.424          4.042         24.966          0.999
   Se        213.931          4.057         25.233          1.009
  Edisp (eV):   -5.24887

[...]

 PIEZOELECTRIC TENSOR FIELD DIRECTION 1  (e Angst)
    -0.00968  0.00000  0.00000           ( -0.00057  0.00000  0.00000)
     0.00000  0.01361  0.00017           (  0.00000  0.00027  0.00000)
     0.00000  0.00006 -0.00160           (  0.00000  0.00000 -0.00013)

 PIEZOELECTRIC TENSOR FIELD DIRECTION 1  (C/m^2)
    -0.00033  0.00000  0.00000
     0.00000  0.00046  0.00001
     0.00000  0.00000 -0.00005

      POSITION         DIRECTION 1           BORN EFFECTIVE CHARGE    (rigid.aug.   ionic)
     -0.00000      0.95811      8.77500    -1.14378 -0.00022  0.00003 (  1.95585 14.00000)
      1.65950      1.91623     15.26500    -1.14971  0.00018  0.00000 (  1.95582 14.00000)
     -0.00000      0.95811     21.75500    -1.14901 -0.00017 -0.00001 (  1.95582 14.00000)
      1.65950      1.91623     28.24500    -1.14901  0.00017  0.00001 (  1.95582 14.00000)
     -0.00000      0.95811     34.73500    -1.14971 -0.00018 -0.00000 (  1.95582 14.00000)
      1.65950      1.91623     41.22500    -1.14378  0.00022 -0.00003 (  1.95585 14.00000)
      1.65950      1.91623     10.45428     0.58418 -0.00164  0.00013 (  1.12261  6.00000)
      1.65950      1.91623      7.09572     0.59181 -0.00157 -0.00007 (  1.12106  6.00000)
     -0.00000      0.95811     16.94428     0.59143  0.00166  0.00014 (  1.12267  6.00000)
     -0.00000      0.95811     13.58572     0.59209  0.00168 -0.00014 (  1.12265  6.00000)
      1.65950      1.91623     23.43428     0.59139 -0.00166  0.00014 (  1.12267  6.00000)
      1.65950      1.91623     20.07572     0.59139 -0.00168 -0.00014 (  1.12267  6.00000)
     -0.00000      0.95811     29.92428     0.59139  0.00168  0.00014 (  1.12267  6.00000)
     -0.00000      0.95811     26.56572     0.59139  0.00166 -0.00014 (  1.12267  6.00000)
      1.65950      1.91623     36.41428     0.59209 -0.00168  0.00014 (  1.12265  6.00000)
      1.65950      1.91623     33.05572     0.59143 -0.00166 -0.00014 (  1.12267  6.00000)
     -0.00000      0.95811     42.90428     0.59181  0.00157  0.00007 (  1.12106  6.00000)
     -0.00000      0.95811     39.54572     0.58418  0.00164 -0.00013 (  1.12261  6.00000)
    total drift (improves with k-points):   0.19960  0.00000 -0.00000

[...]

The dynamic configuration has the point symmetry C_1h.

[...]

 Linear response to external field, progress :
  Direction:   3
  LATTYP: Found a hexagonal cell.
 ALAT       =     3.3190066245
 C/A-ratio  =    15.0647484797

[...]

The dynamic configuration has the point symmetry C_1h.
 The point group associated with its full space group is C_3v.

[...]

----------------------------------------- Iteration    3(  22)  ---------------------------------------

 Broyden mixing:
  rms(total) = 0.54142E-06    rms(broyden)= 0.54105E-06
  rms(prec ) = 0.55122E-06
  weight for this iteration     100.00

 eigenvalues of (default mixing * dielectric matrix)
  average eigenvalue GAMMA=   2.0420
  8.3705  4.8497  4.0422  3.1828  2.8006  2.3939  2.1595  1.6269  1.6269  1.4793
  0.9977  0.9977  0.9705  0.9705  0.8764  0.8030  0.7148  0.6477  0.6551  0.6751

 Free energy of the ion-electron system (eV)
  -Hartree energ DENC   =        -1.74646016
  -V(xc)+E(xc)   XCENC  =         0.05178923
  PAW double counting   =         0.15956027       -0.15840416
  entropy T*S    EENTRO =         0.00000000
  eigenvalues    EBANDS =        -1.09194506
  free energy    TOTEN  =        -2.78545987 eV

  energy without entropy =       -2.78545987

------------------------ aborting loop because EDIFF is reached ----------------------------------------

 change of polarisation eV/A/(eV/A) component  3 :    -0.010     0.002     5.427
 dielectric tensor                  component  3 :    -0.004     0.001     3.059

[...]

  Hirshfeld charges:
            ion         q(e)
      1     W           0.285
      2     W           0.284
      3     W           0.284
      4     W           0.284
      5     W           0.284
      6     W           0.285
      7     Se         -0.142
      8     Se         -0.143
      9     Se         -0.142
     10     Se         -0.142
     11     Se         -0.142
     12     Se         -0.142
     13     Se         -0.142
     14     Se         -0.142
     15     Se         -0.142
     16     Se         -0.142
     17     Se         -0.143
     18     Se         -0.142

  Tkatchenko/Scheffler method for vdW energy calculation

  Parameters of vdW forcefield:
            C6ts              R0ts           ALPHAts        RELVOL
            (au)              (au)            (au)
   W         896.488          4.120         73.047          1.028
   W         902.564          4.125         73.294          1.032
   W         902.607          4.125         73.295          1.032
   W         902.607          4.125         73.295          1.032
   W         902.564          4.125         73.294          1.032
   W         896.488          4.120         73.047          1.028
   Se        213.931          4.057         25.233          1.009
   Se        209.424          4.042         24.966          0.999
   Se        213.940          4.057         25.233          1.009
   Se        213.925          4.057         25.232          1.009
   Se        213.940          4.057         25.233          1.009
   Se        213.940          4.057         25.233          1.009
   Se        213.939          4.057         25.233          1.009
   Se        213.940          4.057         25.233          1.009
   Se        213.925          4.057         25.232          1.009
   Se        213.940          4.057         25.233          1.009
   Se        209.424          4.042         24.966          0.999
   Se        213.931          4.057         25.233          1.009
  Edisp (eV):   -5.24887

 PIEZOELECTRIC TENSOR FIELD DIRECTION 3  (e Angst)
     0.32349  0.00000 -0.00000           ( -0.00000  0.00000  0.00000)
     0.00000  0.32349 -0.00000           (  0.00000 -0.00000 -0.00000)
    -0.00000 -0.00000  0.43572           (  0.00000 -0.00000  0.00000)

 PIEZOELECTRIC TENSOR FIELD DIRECTION 3  (C/m^2)
     0.01087  0.00000 -0.00000
     0.00000  0.01087 -0.00000
    -0.00000 -0.00000  0.01464

      POSITION         DIRECTION 3           BORN EFFECTIVE CHARGE    (rigid.aug.   ionic)
     -0.00000      0.95811      8.77500     0.00000 -0.00000-52.79607 (  1.95585 14.00000)
      1.65950      1.91623     15.26500     0.00000  0.00000-19.97067 (  1.95582 14.00000)
     -0.00000      0.95811     21.75500    -0.00000 -0.00000 -3.94544 (  1.95582 14.00000)
      1.65950      1.91623     28.24500    -0.00000  0.00000 -3.94966 (  1.95582 14.00000)
     -0.00000      0.95811     34.73500    -0.00000  0.00000-19.89657 (  1.95582 14.00000)
      1.65950      1.91623     41.22500    -0.00000  0.00000-52.83855 (  1.95585 14.00000)
      1.65950      1.91623     10.45428     0.00000 -0.00000 -4.74071 (  1.12261  6.00000)
      1.65950      1.91623      7.09572     0.00000  0.00000  4.71761 (  1.12106  6.00000)
     -0.00000      0.95811     16.94428     0.00000 -0.00000 -0.97155 (  1.12267  6.00000)
     -0.00000      0.95811     13.58572     0.00000 -0.00000  1.94236 (  1.12265  6.00000)
      1.65950      1.91623     23.43428    -0.00000  0.00000  0.71845 (  1.12267  6.00000)
      1.65950      1.91623     20.07572     0.00000 -0.00000  1.70864 (  1.12267  6.00000)
     -0.00000      0.95811     29.92428     0.00000  0.00000  1.42036 (  1.12267  6.00000)
     -0.00000      0.95811     26.56572     0.00000 -0.00000  0.65119 (  1.12267  6.00000)
      1.65950      1.91623     36.41428    -0.00000 -0.00000  2.41003 (  1.12265  6.00000)
      1.65950      1.91623     33.05572    -0.00000 -0.00000 -0.62043 (  1.12267  6.00000)
     -0.00000      0.95811     42.90428    -0.00000 -0.00000  4.50332 (  1.12106  6.00000)
     -0.00000      0.95811     39.54572    -0.00000  0.00000 -5.29900 (  1.12261  6.00000)
    total drift (improves with k-points):   0.00000  0.00000*********

[...]

 MACROSCOPIC STATIC DIELECTRIC TENSOR (including local field effects in DFT)
          12.209890     0.000000     0.000000
           0.000000    12.209890    -0.000000
           0.000000     0.000000     3.058663

  LATTYP: Found a hexagonal cell.
 ALAT       =     3.3190066245
 C/A-ratio  =    15.0647484797

  Lattice vectors:

 A1 = (   3.3190066245,   0.0000000000,   0.0000000000)
 A2 = (  -1.6595033122,   2.8743440521,   0.0000000000)
 A3 = (   0.0000000000,   0.0000000000,  50.0000000000)

Analysis of symmetry for initial positions (statically):
 Subroutine PRICEL returns:
 Original cell was already a primitive cell.

[...]

The static configuration has the point symmetry C_2h.
 The point group associated with its full space group is D_3d.

Analysis of symmetry for dynamics (positions and initial velocities):
 Subroutine PRICEL returns:
 Original cell was already a primitive cell.

 Routine SETGRP: Setting up the symmetry group for a
 hexagonal supercell.

 Subroutine GETGRP returns: Found 12 space group operations
 (whereof  4 operations were pure point group operations)
 out of a pool of 24 trial point group operations.

The dynamic configuration has the point symmetry C_2h.
 The point group associated with its full space group is D_3d.

 Subroutine INISYM returns: Found 12 space group operations
 (whereof  4 operations are pure point group operations),
 and found     1 'primitive' translations

 MACROSCOPIC STATIC DIELECTRIC TENSOR (including local field effects in DFT)
          12.209890     0.000000     0.000000
           0.000000    12.209890    -0.000000
           0.000000     0.000000     3.058663

 PIEZOELECTRIC TENSOR  for field in x, y, z        (e  Angst)
          XX          YY          ZZ          XY          YZ          ZX
  x    -0.00968     0.01361    -0.00160     0.00000     0.00006     0.00000
  y    -0.01583     0.02518     0.00384     0.00000     0.00029     0.00000
  z     0.32349     0.32349     0.43572     0.00000    -0.00000    -0.00000

 PIEZOELECTRIC TENSOR  for field in x, y, z        (C/m^2)
          XX          YY          ZZ          XY          YZ          ZX
  x     0.00000     0.00000     0.00000     0.00000     0.00000     0.00000
  y     0.00000     0.00000     0.00000     0.00000     0.00000     0.00000
  z     0.00000     0.00000     0.00000     0.00000     0.00000     0.00000

 BORN EFFECTIVE CHARGES (in e, cummulative output)
 ion    1
    1    -1.14378    -0.00022     0.00003
    2    -0.00000    -1.14451    -0.00002
    3     0.00000    -0.00000   -52.79607
 ion    2
    1    -1.14971     0.00018     0.00000
    2     0.00000    -1.14894     0.00000
    3     0.00000     0.00000   -19.97067
 ion    3
    1    -1.14901    -0.00017    -0.00001
    2     0.00000    -1.14978     0.00001
    3    -0.00000    -0.00000    -3.94544
 ion    4
    1    -1.14901     0.00017     0.00001
    2     0.00000    -1.14825     0.00000
    3    -0.00000     0.00000    -3.94966
 ion    5
    1    -1.14971    -0.00018    -0.00000
    2     0.00000    -1.15049    -0.00001
    3    -0.00000     0.00000   -19.89657
 ion    6
    1    -1.14378     0.00022    -0.00003
    2     0.00000    -1.14308     0.00005
    3    -0.00000     0.00000   -52.83855
 ion    7
    1     0.58418    -0.00164     0.00013
    2     0.00000     0.58460     0.00104
    3     0.00000    -0.00000    -4.74071
 ion    8
    1     0.59181    -0.00157    -0.00007
    2    -0.00000     0.59220    -0.00065
    3     0.00000     0.00000     4.71761
 ion    9
    1     0.59143     0.00166     0.00014
    2     0.00000     0.59100     0.00102
    3     0.00000    -0.00000    -0.97155
 ion   10
    1     0.59209     0.00168    -0.00014
    2     0.00000     0.59169    -0.00102
    3     0.00000    -0.00000     1.94236
 ion   11
    1     0.59139    -0.00166     0.00014
    2     0.00000     0.59181     0.00103
    3    -0.00000     0.00000     0.71845
 ion   12
    1     0.59139    -0.00168    -0.00014
    2    -0.00000     0.59182    -0.00103
    3     0.00000    -0.00000     1.70864
 ion   13
    1     0.59139     0.00168     0.00014
    2     0.00000     0.59096     0.00102
    3     0.00000     0.00000     1.42036
 ion   14
    1     0.59139     0.00166    -0.00014
    2     0.00000     0.59099    -0.00102
    3     0.00000    -0.00000     0.65119
 ion   15
    1     0.59209    -0.00168     0.00014
    2     0.00000     0.59251     0.00102
    3    -0.00000    -0.00000     2.41003
 ion   16
    1     0.59143    -0.00166    -0.00014
    2     0.00000     0.59185    -0.00102
    3    -0.00000    -0.00000    -0.62043
 ion   17
    1     0.59181     0.00157     0.00007
    2    -0.00000     0.59145     0.00065
    3    -0.00000    -0.00000     4.50332
 ion   18
    1     0.58418     0.00164    -0.00013
    2    -0.00000     0.58378    -0.00103
    3    -0.00000     0.00000    -5.29900

 writing wavefunctions
 BZINTS: Fermi energy:  4.113479;156.000000 electrons
         Band energy:***********;  BLOECHL correction:  0.000000