 vasp.5.4.1 24Jun15 (build Apr 13 2016 13:07:19) complex

 executed on           IFC91_ompi date 2019.09.14  02:26:50

 INCAR:
 POTCAR:    PAW_PBE W_sv_GW 23Mar2010
 POTCAR:    PAW_PBE Te_GW 22Mar2012

 POTCAR:    PAW_PBE W_sv_GW 23Mar2010
   VRHFIN =W: 5p6s5d

   TITEL  = PAW_PBE W_sv_GW 23Mar2010
   POMASS =  183.850; ZVAL   =   14.000    mass and valenz
   ENMAX  =  317.132; ENMIN  =  237.849 eV

 POTCAR:    PAW_PBE Te_GW 22Mar2012
   VRHFIN =Te: s2p4

   TITEL  = PAW_PBE Te_GW 22Mar2012
   POMASS =  127.600; ZVAL   =    6.000    mass and valenz
   ENMAX  =  174.982; ENMIN  =  131.236 eV

  PAW_PBE W_sv_GW 23Mar2010             :
  PAW_PBE Te_GW 22Mar2012               :

 POSCAR:  W Te
  positions in cartesian coordinates
 exchange correlation table for  LEXCH =        8
   RHO(1)=    0.500       N(1)  =     2000
   RHO(2)=  100.500       N(2)  =     4000

 ion  position               nearest neighbor table
   1  0.167  0.333  0.500-   2 2.74   3 2.74   2 2.74   3 2.74   2 2.74   3 2.74
   2  0.833  0.667  0.536-   1 2.74   1 2.74   1 2.74   3 3.62
   3  0.833  0.667  0.464-   1 2.74   1 2.74   1 2.74   2 3.62

  LATTYP: Found a hexagonal cell.
 ALAT       =     3.5500762221
 C/A-ratio  =    14.0842046402

  Lattice vectors:

 A1 = (   3.5500762221,   0.0000000000,   0.0000000000)
 A2 = (  -1.7750381110,   3.0744561937,   0.0000000000)
 A3 = (   0.0000000000,   0.0000000000,  50.0000000000)

Analysis of symmetry for initial positions (statically):
 Subroutine PRICEL returns:
 Original cell was already a primitive cell.

 Routine SETGRP: Setting up the symmetry group for a
 hexagonal supercell.

 Subroutine GETGRP returns: Found 12 space group operations
 (whereof  4 operations were pure point group operations)
 out of a pool of 24 trial point group operations.

The static configuration has the point symmetry C_2v.
 The point group associated with its full space group is D_3h.

Analysis of symmetry for dynamics (positions and initial velocities):
 Subroutine PRICEL returns:
 Original cell was already a primitive cell.

[...]

The dynamic configuration has the point symmetry C_2v.
 The point group associated with its full space group is D_3h.

 Subroutine INISYM returns: Found 12 space group operations
 (whereof  4 operations are pure point group operations),
 and found     1 'primitive' translations

 KPOINTS: KPOINTS created by Atomic Simulation Env

Automatic generation of k-mesh.
Space group operators:
 irot       det(A)        alpha          n_x          n_y          n_z        tau_x        tau_y        tau_z
    1     1.000000     0.000001     1.000000     0.000000     0.000000     0.000000     0.000000     0.000000
    2    -1.000000   180.000000     0.000000     0.000000     1.000000     0.000000     0.000000     0.000000
    3    -1.000000   179.999999     1.000000     0.000000     0.000000     0.000000     0.000000     0.000000
    4     1.000000   180.000000     0.000000     1.000000     0.000000     0.000000     0.000000     0.000000
    5    -1.000000    60.000000     0.000000     0.000000    -1.000000     0.000000     0.500000     0.000000
    6     1.000000   120.000000     0.000000     0.000000    -1.000000     0.500000     0.500000     0.000000
    7     1.000000   120.000000     0.000000     0.000000     1.000000     0.000000     0.500000     0.000000
    8    -1.000000    60.000000     0.000000     0.000000     1.000000     0.500000     0.500000     0.000000
    9     1.000000   180.000000     0.866025    -0.500000     0.000000     0.500000     0.500000     0.000000
   10    -1.000000   180.000000     0.500000    -0.866025     0.000000     0.000000     0.500000     0.000000
   11    -1.000000   180.000000    -0.500000    -0.866025     0.000000     0.500000     0.500000     0.000000
   12     1.000000   180.000000     0.866025     0.500000     0.000000     0.000000     0.500000     0.000000

 Subroutine IBZKPT returns following result:

 Found     37 irreducible k-points:

 Following reciprocal coordinates:
            Coordinates               Weight
  0.000000  0.000000  0.000000      1.000000
  0.055556  0.000000  0.000000      6.000000
  0.111111  0.000000  0.000000      6.000000
  0.166667  0.000000  0.000000      6.000000
  0.222222  0.000000  0.000000      6.000000
  0.277778  0.000000  0.000000      6.000000
  0.333333  0.000000  0.000000      6.000000
  0.388889  0.000000  0.000000      6.000000
  0.444444  0.000000  0.000000      6.000000
  0.500000  0.000000  0.000000      3.000000
  0.055556  0.055556  0.000000      6.000000
  0.111111  0.055556  0.000000     12.000000
  0.166667  0.055556  0.000000     12.000000
  0.222222  0.055556  0.000000     12.000000
  0.277778  0.055556  0.000000     12.000000
  0.333333  0.055556  0.000000     12.000000
  0.388889  0.055556  0.000000     12.000000
  0.444444  0.055556  0.000000     12.000000
  0.111111  0.111111  0.000000      6.000000
  0.166667  0.111111  0.000000     12.000000
  0.222222  0.111111  0.000000     12.000000
  0.277778  0.111111  0.000000     12.000000
  0.333333  0.111111  0.000000     12.000000
  0.388889  0.111111  0.000000     12.000000
  0.444444  0.111111  0.000000      6.000000
  0.166667  0.166667  0.000000      6.000000
  0.222222  0.166667  0.000000     12.000000
  0.277778  0.166667  0.000000     12.000000
  0.333333  0.166667  0.000000     12.000000
  0.388889  0.166667  0.000000     12.000000
  0.222222  0.222222  0.000000      6.000000
  0.277778  0.222222  0.000000     12.000000
  0.333333  0.222222  0.000000     12.000000
  0.388889  0.222222  0.000000      6.000000
  0.277778  0.277778  0.000000      6.000000
  0.333333  0.277778  0.000000     12.000000
  0.333333  0.333333  0.000000      2.000000

 Following cartesian coordinates:
            Coordinates               Weight
  0.000000  0.000000  0.000000      1.000000
  0.015649  0.009035  0.000000      6.000000
  0.031298  0.018070  0.000000      6.000000
  0.046947  0.027105  0.000000      6.000000
  0.062596  0.036140  0.000000      6.000000
  0.078246  0.045175  0.000000      6.000000
  0.093895  0.054210  0.000000      6.000000
  0.109544  0.063245  0.000000      6.000000
  0.125193  0.072280  0.000000      6.000000
  0.140842  0.081315  0.000000      3.000000
  0.015649  0.027105  0.000000      6.000000
  0.031298  0.036140  0.000000     12.000000
  0.046947  0.045175  0.000000     12.000000
  0.062596  0.054210  0.000000     12.000000
  0.078246  0.063245  0.000000     12.000000
  0.093895  0.072280  0.000000     12.000000
  0.109544  0.081315  0.000000     12.000000
  0.125193  0.090350  0.000000     12.000000
  0.031298  0.054210  0.000000      6.000000
  0.046947  0.063245  0.000000     12.000000
  0.062596  0.072280  0.000000     12.000000
  0.078246  0.081315  0.000000     12.000000
  0.093895  0.090350  0.000000     12.000000
  0.109544  0.099385  0.000000     12.000000
  0.125193  0.108420  0.000000      6.000000
  0.046947  0.081315  0.000000      6.000000
  0.062596  0.090350  0.000000     12.000000
  0.078246  0.099385  0.000000     12.000000
  0.093895  0.108420  0.000000     12.000000
  0.109544  0.117455  0.000000     12.000000
  0.062596  0.108420  0.000000      6.000000
  0.078246  0.117455  0.000000     12.000000
  0.093895  0.126490  0.000000     12.000000
  0.109544  0.135525  0.000000      6.000000
  0.078246  0.135525  0.000000      6.000000
  0.093895  0.144560  0.000000     12.000000
  0.093895  0.162630  0.000000      2.000000

 TETIRR: Found    169 inequivalent tetrahedra from     1944

 Subroutine IBZKPT_HF returns following result:

 Found    324 k-points in 1st BZ
 the following    324 k-points will be used (e.g. in the exchange kernel)
 Following reciprocal coordinates:   # in IRBZ
  0.000000  0.000000  0.000000    0.00308642   1 t-inv F
  0.055556  0.000000  0.000000    0.00308642   2 t-inv F
  0.111111  0.000000  0.000000    0.00308642   3 t-inv F
  0.166667  0.000000  0.000000    0.00308642   4 t-inv F
  0.222222  0.000000  0.000000    0.00308642   5 t-inv F
  0.277778  0.000000  0.000000    0.00308642   6 t-inv F
  0.333333  0.000000  0.000000    0.00308642   7 t-inv F
  0.388889  0.000000  0.000000    0.00308642   8 t-inv F
  0.444444  0.000000  0.000000    0.00308642   9 t-inv F
  0.500000  0.000000  0.000000    0.00308642  10 t-inv F
  0.055556  0.055556  0.000000    0.00308642  11 t-inv F
  0.111111  0.055556  0.000000    0.00308642  12 t-inv F
  0.166667  0.055556  0.000000    0.00308642  13 t-inv F
  0.222222  0.055556  0.000000    0.00308642  14 t-inv F
  0.277778  0.055556  0.000000    0.00308642  15 t-inv F
  0.333333  0.055556  0.000000    0.00308642  16 t-inv F
  0.388889  0.055556  0.000000    0.00308642  17 t-inv F
  0.444444  0.055556  0.000000    0.00308642  18 t-inv F
  0.111111  0.111111  0.000000    0.00308642  19 t-inv F
  0.166667  0.111111  0.000000    0.00308642  20 t-inv F
  0.222222  0.111111  0.000000    0.00308642  21 t-inv F
  0.277778  0.111111  0.000000    0.00308642  22 t-inv F
  0.333333  0.111111  0.000000    0.00308642  23 t-inv F
  0.388889  0.111111  0.000000    0.00308642  24 t-inv F
  0.444444  0.111111  0.000000    0.00308642  25 t-inv F
  0.166667  0.166667  0.000000    0.00308642  26 t-inv F
  0.222222  0.166667  0.000000    0.00308642  27 t-inv F
  0.277778  0.166667  0.000000    0.00308642  28 t-inv F
  0.333333  0.166667  0.000000    0.00308642  29 t-inv F
  0.388889  0.166667  0.000000    0.00308642  30 t-inv F
  0.222222  0.222222  0.000000    0.00308642  31 t-inv F
  0.277778  0.222222  0.000000    0.00308642  32 t-inv F
  0.333333  0.222222  0.000000    0.00308642  33 t-inv F
  0.388889  0.222222  0.000000    0.00308642  34 t-inv F
  0.277778  0.277778  0.000000    0.00308642  35 t-inv F
  0.333333  0.277778  0.000000    0.00308642  36 t-inv F
  0.333333  0.333333  0.000000    0.00308642  37 t-inv F
 -0.055556  0.055556  0.000000    0.00308642   2 t-inv F
  0.000000 -0.055556 -0.000000    0.00308642   2 t-inv F
 -0.111111  0.111111  0.000000    0.00308642   3 t-inv F
  0.000000 -0.111111 -0.000000    0.00308642   3 t-inv F
 -0.166667  0.166667  0.000000    0.00308642   4 t-inv F
  0.000000 -0.166667 -0.000000    0.00308642   4 t-inv F
 -0.222222  0.222222  0.000000    0.00308642   5 t-inv F
  0.000000 -0.222222 -0.000000    0.00308642   5 t-inv F
 -0.277778  0.277778  0.000000    0.00308642   6 t-inv F
  0.000000 -0.277778 -0.000000    0.00308642   6 t-inv F
 -0.333333  0.333333  0.000000    0.00308642   7 t-inv F
  0.000000 -0.333333 -0.000000    0.00308642   7 t-inv F
 -0.388889  0.388889  0.000000    0.00308642   8 t-inv F
  0.000000 -0.388889 -0.000000    0.00308642   8 t-inv F
 -0.444444  0.444444  0.000000    0.00308642   9 t-inv F
  0.000000 -0.444444 -0.000000    0.00308642   9 t-inv F
 -0.500000  0.500000  0.000000    0.00308642  10 t-inv F
  0.000000 -0.500000 -0.000000    0.00308642  10 t-inv F
 -0.055556  0.111111  0.000000    0.00308642  11 t-inv F
  0.055556 -0.111111 -0.000000    0.00308642  11 t-inv F
 -0.111111  0.055556  0.000000    0.00308642  11 t-inv F
 -0.055556 -0.055556 -0.000000    0.00308642  11 t-inv F
  0.111111 -0.055556  0.000000    0.00308642  11 t-inv F
[...]
[...]
 augmentation part       -4.3115698 magnetization

[...]

 BZINTS: Fermi energy: -2.863901; 26.000000 electrons
         Band energy:-535.234090;  BLOECHL correction:  0.000000

 eigenvalue-minimisations  :  2940
 total energy-change (2. order) :-0.2448814E-08  ( 0.5160234E-11)
 number of electron      25.9999992 magnetization
 augmentation part       -4.3115698 magnetization

 Free energy of the ion-electron system (eV)
  alpha Z        PSCENC =         7.54938813
  Ewald energy   TEWEN  =     17577.00696512
  -Hartree energ DENC   =    -19483.71404582
  -exchange      EXHF   =         0.00000000
  -V(xc)+E(xc)   XCENC  =       -75.27446051
  PAW double counting   =      2916.03145990    -2738.06445758
  entropy T*S    EENTRO =         0.00000000
  eigenvalues    EBANDS =      -535.23408952
  atomic energy  EATOM  =      2310.20207948
  Solvation  Ediel_sol  =         0.00000000
  free energy    TOTEN  =       -21.49716080 eV

  energy without entropy =      -21.49716080  energy(sigma->0) =      -21.49716080

 average (electrostatic) potential at core
  the test charge radii are     0.9757  1.1897
  (the norm of the test charge is              1.0000)
       1 -99.7277       2 -97.1823       3 -97.1823

 E-fermi :  -2.8639     XC(G=0):  -1.7475     alpha+bet : -1.8690

 k-point     1 :       0.0000    0.0000    0.0000
  band No.  band energies     occupation
      1     -76.8899      2.00000
      2     -41.0884      2.00000
      3     -41.0471      2.00000
      4     -41.0471      2.00000
      5     -15.9350      2.00000
      6     -14.7639      2.00000
      7      -8.4994      2.00000
      8      -4.8963      2.00000
      9      -4.7424      2.00000
     10      -4.7424      2.00000
     11      -3.8309      2.00000
     12      -3.8309      2.00000
     13      -3.4409      2.00000
     14       0.1412      0.00000
     15       0.1412      0.00000
     16       0.4142      0.00000
     17       0.4142      0.00000
     18       0.9894      0.00000
     19       1.3449      0.00000
     20       1.7134      0.00000
     21       1.8037      0.00000
     22       1.8944      0.00000
     23       2.1269      0.00000
     24       2.2288      0.00000
     25       2.6002      0.00000
     26       2.6220      0.00000
     27       3.0078      0.00000
     28       3.2714      0.00000

[...]

 k-point    37 :       0.3333    0.3333    0.0000
  band No.  band energies     occupation
      1     -76.8883      2.00000
      2     -41.1247      2.00000
      3     -41.1129      2.00000
      4     -41.0666      2.00000
      5     -13.4916      2.00000
      6     -13.2406      2.00000
      7      -7.9160      2.00000
      8      -7.6471      2.00000
      9      -6.9884      2.00000
     10      -6.1153      2.00000
     11      -6.1088      2.00000
     12      -4.7984      2.00000
     13      -2.9196      2.00000
     14      -1.8463      0.00000
     15      -0.8433      0.00000
     16      -0.0806      0.00000
     17       1.3141      0.00000
     18       1.5419      0.00000
     19       2.0128      0.00000
     20       4.1711      0.00000
     21       5.2850      0.00000
     22       5.4060      0.00000
     23       6.1189      0.00000
     24       6.3814      0.00000
     25       6.4049      0.00000
     26       7.0043      0.00000
     27       7.0070      0.00000
     28       7.0160      0.00000

 soft charge-density along one line, spin component           1
         0         1         2         3         4         5         6         7         8         9
 total charge-density along one line

------------------------ aborting loop because EDIFF is reached ----------------------------------------

  Hirshfeld charges:
            ion         q(e)
      1     W           0.217
      2     Te         -0.109
      3     Te         -0.109

  Atomic reference data used in the T-S method for vdW correction:
            C6at              R0at           ALPHAat      REFSTATE
            (au)              (au)            (au)
   W         847.930          4.082         71.041         0
   Te        396.000          4.214         37.650         0

  Tkatchenko/Scheffler method for vdW energy calculation

  Parameters of vdW forcefield:
            C6ts              R0ts           ALPHAts        RELVOL
            (au)              (au)            (au)
   W         916.106          4.135         73.842          1.039
   Te        401.292          4.223         37.901          1.007
   Te        401.292          4.223         37.901          1.007

  IVDW =  20
  VDW_RADIUS =    50.000 A
  VDW_IDAMPF =  0
  VDW_S6 =     1.000
  VDW_SR =     0.940
  VDW_D =    20.000
  LVDW_EWALD = T
  Edisp (eV):   -0.67412

  FORCE on cell =-STRESS in cart. coord.  units (eV):
  Direction    XX          YY          ZZ          XY          YZ          ZX
  Alpha Z     7.54939     7.54939     7.54939
  Ewald   18826.91240 18826.91240-20076.81834    -0.00000    -0.00000     0.00000
  Hartree 19213.09208 19213.09208-18942.47006    -0.00000    -0.00000    -0.00000
  E(xc)    -130.07241  -130.07241  -130.69785     0.00000    -0.00000     0.00000
  Local  -38491.07082-38491.07084 38561.12480    -0.00002    -0.00000     0.00000
  n-local   127.97681   128.18260   134.05698     1.40618    -0.00000    -0.00000
  augment   -85.95188   -85.95186   -87.56220     0.00001     0.00000     0.00000
  Kinetic   528.78652   531.13765   533.33182   -11.56728     0.00000    -0.00000
  Fock        0.00000     0.00000     0.00000     0.00000     0.00000     0.00000
  vdW        -0.68955    -0.68955    -0.34766     0.00000     0.00000     0.00000
  Total      -2.18901    -2.18901    -1.83312    -0.00000     0.00000     0.00000
  in kB      -6.42660    -6.42660    -5.38178    -0.00000     0.00000     0.00000

 VOLUME and BASIS-vectors are now :
  energy-cutoff  :      317.13
  volume of cell :      545.73
      direct lattice vectors                 reciprocal lattice vectors
     3.550076222  0.000000000  0.000000000     0.281684093  0.162630387  0.000000000
    -1.775038111  3.074456194  0.000000000     0.000000000  0.325260774  0.000000000
     0.000000000  0.000000000 50.000000000     0.000000000  0.000000000  0.020000000

  length of vectors
     3.550076222  3.550076222 50.000000000     0.325260774  0.325260774  0.020000000

 FORCES acting on ions
    electron-ion (+dipol)            ewald-force                    non-local-force                 convergence-correction
   0.270E-07 -.154E-07 0.103E-10   0.862E-11 -.500E-11 0.000E+00   -.694E-17 -.347E-17 0.000E+00   -.423E-11 0.246E-11 -.125E-11
   -.162E-06 0.199E-06 -.851E+03   -.431E-11 0.251E-11 0.856E+03   0.139E-16 0.000E+00 -.529E+01   -.674E-12 0.386E-12 -.625E-06
   -.253E-06 0.410E-07 0.851E+03   -.431E-11 0.251E-11 -.856E+03   0.139E-16 -.347E-17 0.529E+01   -.675E-12 0.390E-12 0.625E-06
   -.389E-06 0.225E-06 0.308E-10   -.546E-14 0.161E-13 0.000E+00   0.208E-16 -.694E-17 0.000E+00   -.558E-11 0.323E-11 -.243E-11

 POSITION                                       TOTAL-FORCE (eV/Angst)
     -0.00000      1.02482     25.00000        -0.000000     -0.000000      0.000000
      1.77504      2.04964     26.81196         0.000000      0.000000     -0.037851
      1.77504      2.04964     23.18804         0.000000      0.000000      0.037851
    total drift:                               -0.000000      0.000000      0.000000

  FREE ENERGIE OF THE ION-ELECTRON SYSTEM (eV)
  free  energy   TOTEN  =       -22.17127778 eV

  energy  without entropy=      -22.17127778  energy(sigma->0) =      -22.17127778

 Linear response reoptimize wavefunctions
 Linear response G [H, r] |phi>, progress :
  Direction:   1

[...]

  free energy    TOTEN  =      -126.17254024 eV

[...]

 Linear response G [H, r] |phi>, progress :
  Direction:   2

[...]

 Linear response G [H, r] |phi>, progress :
  Direction:   3

[...]

  free energy    TOTEN  =      -141.83696600 eV

[...]

 Linear response to external field (no local field effect), progress :
  Direction:   1
  LATTYP: Found a hexagonal cell.
 ALAT       =     3.5500762221
 C/A-ratio  =    14.0842046402

[...]

The dynamic configuration has the point symmetry C_1h.

[...]

 Free energy of the ion-electron system (eV)
  -Hartree energ DENC   =         0.00000000
  -V(xc)+E(xc)   XCENC  =         0.00000000
  PAW double counting   =         0.00000000        0.00000000
  entropy T*S    EENTRO =         0.00000000
  eigenvalues    EBANDS =        -2.60385646
  free energy    TOTEN  =        -2.60385646 eV

  energy without entropy =       -2.60385646

[...]

 change of polarisation eV/A/(eV/A) component  1 :     7.697    -0.113     0.000
 dielectric tensor                  component  1 :     3.552    -0.037     0.000

[...]

The dynamic configuration has the point symmetry C_2v.

[...]

 Linear response to external field (no local field effect), progress :
  Direction:   3
  LATTYP: Found a hexagonal cell.
 ALAT       =     3.5500762221
 C/A-ratio  =    14.0842046402

[...]

The dynamic configuration has the point symmetry C_1h.
 The point group associated with its full space group is C_3v.

[...]

 HEAD OF MICROSCOPIC STATIC DIELECTRIC TENSOR (INDEPENDENT PARTICLE, excluding Hartree and local field effects)
           3.554694    -0.000000     0.000000
           0.000000     3.554694    -0.000000
           0.000000     0.000000     2.228419

 Linear response to external field, progress :
  Direction:   1
  LATTYP: Found a hexagonal cell.
 ALAT       =     3.5500762221
 C/A-ratio  =    14.0842046402

[...]

The dynamic configuration has the point symmetry C_1h.

[...]

  Parameters of vdW forcefield:
            C6ts              R0ts           ALPHAts        RELVOL
            (au)              (au)            (au)
   W         916.106          4.135         73.842          1.039
   Te        401.292          4.223         37.901          1.007
   Te        401.292          4.223         37.901          1.007
  Edisp (eV):   -0.67412

[...]

 PIEZOELECTRIC TENSOR FIELD DIRECTION 1  (e Angst)
    -0.00416 -0.81497  0.00000           ( -0.00001  0.13120  0.00000)
    -0.81493  0.00318  0.00000           (  0.13120  0.00003  0.00000)
     0.00000  0.00000 -0.00058           (  0.00000  0.00000  0.00001)

 PIEZOELECTRIC TENSOR FIELD DIRECTION 1  (C/m^2)
    -0.00012 -0.02393  0.00000
    -0.02393  0.00009  0.00000
     0.00000  0.00000 -0.00002

      POSITION         DIRECTION 1           BORN EFFECTIVE CHARGE    (rigid.aug.   ionic)
     -0.00000      1.02482     25.00000    -2.50771 -0.00103  0.00000 (  1.94625 14.00000)
      1.77504      2.04964     26.81196     1.27823 -0.00028 -0.00029 (  1.18266  6.00000)
      1.77504      2.04964     23.18804     1.27823 -0.00028  0.00029 (  1.18266  6.00000)
    total drift (improves with k-points):   0.04876 -0.00159  0.00000

[...]

The dynamic configuration has the point symmetry C_2v.

[...]

 Linear response to external field, progress :
  Direction:   3
  LATTYP: Found a hexagonal cell.
 ALAT       =     3.5500762221
 C/A-ratio  =    14.0842046402

[...]

The dynamic configuration has the point symmetry C_1h.
 The point group associated with its full space group is C_3v.

[...]

----------------------------------------- Iteration    3(  21)  ---------------------------------------

 Broyden mixing:
  rms(total) = 0.83033E-06    rms(broyden)= 0.83026E-06
  rms(prec ) = 0.98567E-06
  weight for this iteration     100.00

 eigenvalues of (default mixing * dielectric matrix)
  average eigenvalue GAMMA=   2.5549
  8.5431  7.5685  5.1060  4.6351  3.1506  3.1506  2.2868  2.2868  1.8353  1.5073
  1.0709  1.0709  0.8410  1.0571  0.9822  0.9637  0.9637  0.9124  0.6116

 Free energy of the ion-electron system (eV)
  -Hartree energ DENC   =        -0.18012430
  -V(xc)+E(xc)   XCENC  =         0.00432520
  PAW double counting   =         0.00475596       -0.00469246
  entropy T*S    EENTRO =         0.00000000
  eigenvalues    EBANDS =        -0.04760184
  free energy    TOTEN  =        -0.22333743 eV

  energy without entropy =       -0.22333743

------------------------ aborting loop because EDIFF is reached ----------------------------------------

 change of polarisation eV/A/(eV/A) component  3 :     0.000     0.000     0.434
 dielectric tensor                  component  3 :     0.000     0.000     1.144

[...]

  Hirshfeld charges:
            ion         q(e)
      1     W           0.217
      2     Te         -0.109
      3     Te         -0.109

  Tkatchenko/Scheffler method for vdW energy calculation

  Parameters of vdW forcefield:
            C6ts              R0ts           ALPHAts        RELVOL
            (au)              (au)            (au)
   W         916.106          4.135         73.842          1.039
   Te        401.291          4.223         37.901          1.007
   Te        401.292          4.223         37.901          1.007
  Edisp (eV):   -0.67412

 PIEZOELECTRIC TENSOR FIELD DIRECTION 3  (e Angst)
     0.00003  0.00000 -0.00000           (  0.00000  0.00000  0.00000)
    -0.00000  0.00003  0.00000           (  0.00000  0.00000  0.00000)
     0.00000 -0.00000  0.00001           (  0.00000  0.00000  0.00000)

 PIEZOELECTRIC TENSOR FIELD DIRECTION 3  (C/m^2)
     0.00000  0.00000 -0.00000
    -0.00000  0.00000  0.00000
     0.00000 -0.00000  0.00000

      POSITION         DIRECTION 3           BORN EFFECTIVE CHARGE    (rigid.aug.   ionic)
     -0.00000      1.02482     25.00000    -0.00000 -0.00000 -0.10820 (  1.94625 14.00000)
      1.77504      2.04964     26.81196     0.00000 -0.00000  0.08010 (  1.18266  6.00000)
      1.77504      2.04964     23.18804    -0.00000 -0.00000  0.08010 (  1.18266  6.00000)
    total drift (improves with k-points):  -0.00000 -0.00000  0.05200

[...]

 MACROSCOPIC STATIC DIELECTRIC TENSOR (including local field effects in DFT)
           3.460761    -0.000000     0.000000
          -0.000000     3.460761    -0.000000
           0.000000     0.000000     1.143947

  LATTYP: Found a hexagonal cell.
 ALAT       =     3.5500762221
 C/A-ratio  =    14.0842046402

  Lattice vectors:

 A1 = (   3.5500762221,   0.0000000000,   0.0000000000)
 A2 = (  -1.7750381110,   3.0744561937,   0.0000000000)
 A3 = (   0.0000000000,   0.0000000000,  50.0000000000)

Analysis of symmetry for initial positions (statically):
 Subroutine PRICEL returns:
 Original cell was already a primitive cell.

[...]

The static configuration has the point symmetry C_2v.
 The point group associated with its full space group is D_3h.

Analysis of symmetry for dynamics (positions and initial velocities):
 Subroutine PRICEL returns:
 Original cell was already a primitive cell.

 Routine SETGRP: Setting up the symmetry group for a
 hexagonal supercell.

 Subroutine GETGRP returns: Found 12 space group operations
 (whereof  4 operations were pure point group operations)
 out of a pool of 24 trial point group operations.

The dynamic configuration has the point symmetry C_2v.
 The point group associated with its full space group is D_3h.

 Subroutine INISYM returns: Found 12 space group operations
 (whereof  4 operations are pure point group operations),
 and found     1 'primitive' translations

 MACROSCOPIC STATIC DIELECTRIC TENSOR (including local field effects in DFT)
           3.460761    -0.000000     0.000000
          -0.000000     3.460761    -0.000000
           0.000000     0.000000     1.143947

 PIEZOELECTRIC TENSOR  for field in x, y, z        (e  Angst)
          XX          YY          ZZ          XY          YZ          ZX
  x    -0.00416     0.00318    -0.00058    -0.81493     0.00000     0.00000
  y    -0.81809     0.81973     0.00197     0.00000     0.00000     0.00000
  z     0.00003     0.00003     0.00001    -0.00000    -0.00000    -0.00000

 PIEZOELECTRIC TENSOR  for field in x, y, z        (C/m^2)
          XX          YY          ZZ          XY          YZ          ZX
  x     0.00000     0.00000     0.00000    -0.02398     0.00000     0.00000
  y    -0.02398     0.02398     0.00000    -0.00000     0.00000     0.00000
  z     0.00000     0.00000     0.00000     0.00000     0.00000     0.00000

 BORN EFFECTIVE CHARGES (in e, cummulative output)
 ion    1
    1    -2.50771    -0.00103     0.00000
    2     0.00000    -2.50842     0.00000
    3    -0.00000    -0.00000    -0.10820
 ion    2
    1     1.27823    -0.00028    -0.00029
    2     0.00000     1.27853     0.00083
    3     0.00000    -0.00000     0.08010
 ion    3
    1     1.27823    -0.00028     0.00029
    2     0.00000     1.27853    -0.00083
    3    -0.00000    -0.00000     0.08010

 writing wavefunctions
 BZINTS: Fermi energy: -2.864017; 26.000000 electrons
         Band energy:-535.234040;  BLOECHL correction:  0.000000