 vasp.5.4.1 24Jun15 (build Apr 13 2016 13:07:19) complex

 executed on           IFC91_ompi date 2019.09.13  19:36:44

 INCAR:
 POTCAR:    PAW_PBE Mo_sv_GW 05Dec2013
 POTCAR:    PAW_PBE Se_GW 20Mar2012

 POTCAR:    PAW_PBE Mo_sv_GW 05Dec2013
   VRHFIN =Mo: 4s4p5s4d

   TITEL  = PAW_PBE Mo_sv_GW 05Dec2013
   POMASS =   95.940; ZVAL   =   14.000    mass and valenz
   ENMAX  =  344.914; ENMIN  =  258.686 eV

 POTCAR:    PAW_PBE Se_GW 20Mar2012
   VRHFIN =Se: s2p4

   TITEL  = PAW_PBE Se_GW 20Mar2012
   POMASS =   78.960; ZVAL   =    6.000    mass and valenz
   ENMAX  =  211.555; ENMIN  =  158.666 eV

  PAW_PBE Mo_sv_GW 05Dec2013            :
  PAW_PBE Se_GW 20Mar2012               :

 POSCAR: Mo Se
  positions in cartesian coordinates
 exchange correlation table for  LEXCH =        8
   RHO(1)=    0.500       N(1)  =     2000
   RHO(2)=  100.500       N(2)  =     4000

 ion  position               nearest neighbor table
   1  0.167  0.333  0.306-   6 2.54   6 2.54   6 2.54   5 2.54   5 2.54   5 2.54
   2  0.833  0.667  0.435-   7 2.54   8 2.54   7 2.54   8 2.54   7 2.54   8 2.54
   3  0.167  0.333  0.565-   9 2.54  10 2.54   9 2.54  10 2.54   9 2.54  10 2.54
   4  0.833  0.667  0.694-  11 2.54  11 2.54  11 2.54  12 2.54  12 2.54  12 2.54
   5  0.833  0.667  0.340-   1 2.54   1 2.54   1 2.54
   6  0.833  0.667  0.273-   1 2.54   1 2.54   1 2.54
   7  0.167  0.333  0.469-   2 2.54   2 2.54   2 2.54
   8  0.167  0.333  0.402-   2 2.54   2 2.54   2 2.54
   9  0.833  0.667  0.598-   3 2.54   3 2.54   3 2.54
  10  0.833  0.667  0.531-   3 2.54   3 2.54   3 2.54
  11  0.167  0.333  0.727-   4 2.54   4 2.54   4 2.54
  12  0.167  0.333  0.660-   4 2.54   4 2.54   4 2.54

  LATTYP: Found a hexagonal cell.
 ALAT       =     3.3197487879
 C/A-ratio  =    15.0613806029

  Lattice vectors:

 A1 = (   3.3197487879,   0.0000000000,   0.0000000000)
 A2 = (  -1.6598743939,   2.8749867845,   0.0000000000)
 A3 = (   0.0000000000,   0.0000000000,  50.0000000000)

Analysis of symmetry for initial positions (statically):
 Subroutine PRICEL returns:
 Original cell was already a primitive cell.

 Routine SETGRP: Setting up the symmetry group for a
 hexagonal supercell.

 Subroutine GETGRP returns: Found 12 space group operations
 (whereof  4 operations were pure point group operations)
 out of a pool of 24 trial point group operations.

The static configuration has the point symmetry C_2h.
 The point group associated with its full space group is D_3d.

Analysis of symmetry for dynamics (positions and initial velocities):
 Subroutine PRICEL returns:
 Original cell was already a primitive cell.

[...]

The dynamic configuration has the point symmetry C_2h.
 The point group associated with its full space group is D_3d.

 Subroutine INISYM returns: Found 12 space group operations
 (whereof  4 operations are pure point group operations),
 and found     1 'primitive' translations

 KPOINTS: KPOINTS created by Atomic Simulation Env

Automatic generation of k-mesh.
Space group operators:
 irot       det(A)        alpha          n_x          n_y          n_z        tau_x        tau_y        tau_z
    1     1.000000     0.000000     1.000000     0.000000     0.000000     0.000000     0.000000     0.000000
    2    -1.000000     0.000000     1.000000     0.000000     0.000000     0.000000     0.000000     0.000000
    3     1.000000   180.000000     1.000000     0.000000     0.000000     0.000000     0.000000     0.000000
    4    -1.000000   180.000000     1.000000     0.000000     0.000000     0.000000     0.000000     0.000000
    5     1.000000   120.000000     0.000000     0.000000    -1.000000     0.500000     0.500000     0.000000
    6    -1.000000   120.000000     0.000000     0.000000    -1.000000     0.500000     0.500000     0.000000
    7     1.000000   120.000000     0.000000     0.000000     1.000000     0.000000     0.500000     0.000000
    8    -1.000000   120.000000     0.000000     0.000000     1.000000     0.000000     0.500000     0.000000
    9     1.000000   180.000000     0.500000    -0.866025     0.000000     0.000000     0.500000     0.000000
   10    -1.000000   180.000000     0.500000    -0.866025     0.000000     0.000000     0.500000     0.000000
   11     1.000000   180.000000    -0.500000    -0.866025     0.000000     0.500000     0.500000     0.000000
   12    -1.000000   180.000000    -0.500000    -0.866025     0.000000     0.500000     0.500000     0.000000

 Subroutine IBZKPT returns following result:

 Found     37 irreducible k-points:

 Following reciprocal coordinates:
            Coordinates               Weight
  0.000000  0.000000  0.000000      1.000000
  0.055556  0.000000  0.000000      6.000000
  0.111111  0.000000  0.000000      6.000000
  0.166667  0.000000  0.000000      6.000000
  0.222222  0.000000  0.000000      6.000000
  0.277778  0.000000  0.000000      6.000000
  0.333333  0.000000  0.000000      6.000000
  0.388889  0.000000  0.000000      6.000000
  0.444444  0.000000  0.000000      6.000000
  0.500000  0.000000  0.000000      3.000000
  0.055556  0.055556  0.000000      6.000000
  0.111111  0.055556  0.000000     12.000000
  0.166667  0.055556  0.000000     12.000000
  0.222222  0.055556  0.000000     12.000000
  0.277778  0.055556  0.000000     12.000000
  0.333333  0.055556  0.000000     12.000000
  0.388889  0.055556  0.000000     12.000000
  0.444444  0.055556  0.000000     12.000000
  0.111111  0.111111  0.000000      6.000000
  0.166667  0.111111  0.000000     12.000000
  0.222222  0.111111  0.000000     12.000000
  0.277778  0.111111  0.000000     12.000000
  0.333333  0.111111  0.000000     12.000000
  0.388889  0.111111  0.000000     12.000000
  0.444444  0.111111  0.000000      6.000000
  0.166667  0.166667  0.000000      6.000000
  0.222222  0.166667  0.000000     12.000000
  0.277778  0.166667  0.000000     12.000000
  0.333333  0.166667  0.000000     12.000000
  0.388889  0.166667  0.000000     12.000000
  0.222222  0.222222  0.000000      6.000000
  0.277778  0.222222  0.000000     12.000000
  0.333333  0.222222  0.000000     12.000000
  0.388889  0.222222  0.000000      6.000000
  0.277778  0.277778  0.000000      6.000000
  0.333333  0.277778  0.000000     12.000000
  0.333333  0.333333  0.000000      2.000000

 Following cartesian coordinates:
            Coordinates               Weight
  0.000000  0.000000  0.000000      1.000000
  0.016735  0.009662  0.000000      6.000000
  0.033470  0.019324  0.000000      6.000000
  0.050205  0.028986  0.000000      6.000000
  0.066939  0.038648  0.000000      6.000000
  0.083674  0.048309  0.000000      6.000000
  0.100409  0.057971  0.000000      6.000000
  0.117144  0.067633  0.000000      6.000000
  0.133879  0.077295  0.000000      6.000000
  0.150614  0.086957  0.000000      3.000000
  0.016735  0.028986  0.000000      6.000000
  0.033470  0.038648  0.000000     12.000000
  0.050205  0.048309  0.000000     12.000000
  0.066939  0.057971  0.000000     12.000000
  0.083674  0.067633  0.000000     12.000000
  0.100409  0.077295  0.000000     12.000000
  0.117144  0.086957  0.000000     12.000000
  0.133879  0.096619  0.000000     12.000000
  0.033470  0.057971  0.000000      6.000000
  0.050205  0.067633  0.000000     12.000000
  0.066939  0.077295  0.000000     12.000000
  0.083674  0.086957  0.000000     12.000000
  0.100409  0.096619  0.000000     12.000000
  0.117144  0.106281  0.000000     12.000000
  0.133879  0.115943  0.000000      6.000000
  0.050205  0.086957  0.000000      6.000000
  0.066939  0.096619  0.000000     12.000000
  0.083674  0.106281  0.000000     12.000000
  0.100409  0.115943  0.000000     12.000000
  0.117144  0.125604  0.000000     12.000000
  0.066939  0.115943  0.000000      6.000000
  0.083674  0.125604  0.000000     12.000000
  0.100409  0.135266  0.000000     12.000000
  0.117144  0.144928  0.000000      6.000000
  0.083674  0.144928  0.000000      6.000000
  0.100409  0.154590  0.000000     12.000000
  0.100409  0.173914  0.000000      2.000000

 TETIRR: Found    169 inequivalent tetrahedra from     1944

 Subroutine IBZKPT_HF returns following result:

 Found    324 k-points in 1st BZ
 the following    324 k-points will be used (e.g. in the exchange kernel)
 Following reciprocal coordinates:   # in IRBZ
  0.000000  0.000000  0.000000    0.00308642   1 t-inv F
  0.055556  0.000000  0.000000    0.00308642   2 t-inv F
  0.111111  0.000000  0.000000    0.00308642   3 t-inv F
  0.166667  0.000000  0.000000    0.00308642   4 t-inv F
  0.222222  0.000000  0.000000    0.00308642   5 t-inv F
  0.277778  0.000000  0.000000    0.00308642   6 t-inv F
  0.333333  0.000000  0.000000    0.00308642   7 t-inv F
  0.388889  0.000000  0.000000    0.00308642   8 t-inv F
  0.444444  0.000000  0.000000    0.00308642   9 t-inv F
  0.500000  0.000000  0.000000    0.00308642  10 t-inv F
  0.055556  0.055556  0.000000    0.00308642  11 t-inv F
  0.111111  0.055556  0.000000    0.00308642  12 t-inv F
  0.166667  0.055556  0.000000    0.00308642  13 t-inv F
  0.222222  0.055556  0.000000    0.00308642  14 t-inv F
  0.277778  0.055556  0.000000    0.00308642  15 t-inv F
  0.333333  0.055556  0.000000    0.00308642  16 t-inv F
  0.388889  0.055556  0.000000    0.00308642  17 t-inv F
  0.444444  0.055556  0.000000    0.00308642  18 t-inv F
  0.111111  0.111111  0.000000    0.00308642  19 t-inv F
  0.166667  0.111111  0.000000    0.00308642  20 t-inv F
  0.222222  0.111111  0.000000    0.00308642  21 t-inv F
  0.277778  0.111111  0.000000    0.00308642  22 t-inv F
  0.333333  0.111111  0.000000    0.00308642  23 t-inv F
  0.388889  0.111111  0.000000    0.00308642  24 t-inv F
  0.444444  0.111111  0.000000    0.00308642  25 t-inv F
  0.166667  0.166667  0.000000    0.00308642  26 t-inv F
  0.222222  0.166667  0.000000    0.00308642  27 t-inv F
  0.277778  0.166667  0.000000    0.00308642  28 t-inv F
  0.333333  0.166667  0.000000    0.00308642  29 t-inv F
  0.388889  0.166667  0.000000    0.00308642  30 t-inv F
  0.222222  0.222222  0.000000    0.00308642  31 t-inv F
  0.277778  0.222222  0.000000    0.00308642  32 t-inv F
  0.333333  0.222222  0.000000    0.00308642  33 t-inv F
  0.388889  0.222222  0.000000    0.00308642  34 t-inv F
  0.277778  0.277778  0.000000    0.00308642  35 t-inv F
  0.333333  0.277778  0.000000    0.00308642  36 t-inv F
  0.333333  0.333333  0.000000    0.00308642  37 t-inv F
 -0.055556 -0.000000 -0.000000    0.00308642   2 t-inv F
  0.055556 -0.055556 -0.000000    0.00308642   2 t-inv F
 -0.055556  0.055556  0.000000    0.00308642   2 t-inv F
  0.000000 -0.055556  0.000000    0.00308642   2 t-inv F
 -0.000000  0.055556 -0.000000    0.00308642   2 t-inv F
 -0.111111 -0.000000 -0.000000    0.00308642   3 t-inv F
  0.111111 -0.111111 -0.000000    0.00308642   3 t-inv F
 -0.111111  0.111111  0.000000    0.00308642   3 t-inv F
  0.000000 -0.111111  0.000000    0.00308642   3 t-inv F
 -0.000000  0.111111 -0.000000    0.00308642   3 t-inv F
 -0.166667 -0.000000 -0.000000    0.00308642   4 t-inv F
  0.166667 -0.166667 -0.000000    0.00308642   4 t-inv F
 -0.166667  0.166667  0.000000    0.00308642   4 t-inv F
  0.000000 -0.166667  0.000000    0.00308642   4 t-inv F
[...]
     3.319748788  3.319748788 50.000000000     0.347827686  0.347827686  0.020000000

 FORCES acting on ions
    electron-ion (+dipol)            ewald-force                    non-local-force                 convergence-correction
   0.412E-07 0.137E-07 0.500E+04   0.106E-10 -.619E-11 -.500E+04   0.000E+00 0.139E-16 0.147E-01   -.139E-10 0.796E-11 0.355E-05
   -.184E-07 0.722E-08 0.167E+04   -.106E-10 0.610E-11 -.167E+04   0.000E+00 -.208E-16 -.472E-03   -.217E-10 0.125E-10 -.470E-06
   0.185E-07 -.709E-08 -.167E+04   0.105E-10 -.619E-11 0.167E+04   -.694E-17 -.694E-17 0.472E-03   0.217E-10 -.125E-10 0.470E-06
   -.411E-07 -.136E-07 -.500E+04   -.107E-10 0.611E-11 0.500E+04   -.694E-17 -.139E-16 -.147E-01   0.139E-10 -.798E-11 -.355E-05
   -.766E-07 -.118E-06 0.146E+04   -.546E-11 0.314E-11 -.145E+04   -.694E-17 0.278E-16 -.259E+01   0.607E-11 -.349E-11 -.952E-06
   0.571E-07 0.815E-07 0.283E+04   -.527E-11 0.307E-11 -.283E+04   0.000E+00 0.694E-17 0.257E+01   0.647E-11 -.374E-11 0.195E-05
   0.905E-07 -.102E-06 0.275E+02   0.543E-11 -.313E-11 -.250E+02   0.208E-16 0.000E+00 -.258E+01   -.520E-11 0.300E-11 0.939E-06
   -.141E-07 -.646E-07 0.140E+04   0.543E-11 -.313E-11 -.140E+04   -.694E-17 0.139E-16 0.258E+01   -.607E-11 0.350E-11 0.365E-06
   0.141E-07 0.647E-07 -.140E+04   -.538E-11 0.314E-11 0.140E+04   -.104E-16 -.139E-16 -.258E+01   0.606E-11 -.350E-11 -.365E-06
   -.905E-07 0.102E-06 -.275E+02   -.538E-11 0.314E-11 0.250E+02   -.139E-16 0.000E+00 0.258E+01   0.519E-11 -.301E-11 -.939E-06
   -.571E-07 -.815E-07 -.283E+04   0.532E-11 -.307E-11 0.283E+04   -.208E-16 0.694E-17 -.257E+01   -.647E-11 0.374E-11 -.195E-05
   0.766E-07 0.118E-06 -.146E+04   0.545E-11 -.315E-11 0.145E+04   0.000E+00 -.278E-16 0.259E+01   -.607E-11 0.349E-11 0.952E-06
   0.185E-09 0.313E-09 0.203E-09   -.237E-13 -.172E-12 0.455E-12   -.520E-16 -.139E-16 -.444E-15   -.963E-14 -.246E-13 -.152E-10

 POSITION                                       TOTAL-FORCE (eV/Angst)
     -0.00000      0.95833     15.31000         0.000000     -0.000000      0.056140
      1.65987      1.91666     21.77000         0.000000     -0.000000      0.001579
     -0.00000      0.95833     28.23000         0.000000      0.000000     -0.001579
      1.65987      1.91666     34.69000         0.000000      0.000000     -0.056140
      1.65987      1.91666     16.97903         0.000000      0.000000     -0.079364
      1.65987      1.91666     13.64097         0.000000     -0.000000      0.044300
     -0.00000      0.95833     23.43903         0.000000     -0.000000     -0.094643
     -0.00000      0.95833     20.10097         0.000000     -0.000000      0.096003
      1.65987      1.91666     29.89903        -0.000000      0.000000     -0.096003
      1.65987      1.91666     26.56097        -0.000000      0.000000      0.094643
     -0.00000      0.95833     36.35903        -0.000000      0.000000     -0.044300
     -0.00000      0.95833     33.02097        -0.000000     -0.000000      0.079364
    total drift:                                0.000000      0.000000      0.000000

  FREE ENERGIE OF THE ION-ELECTRON SYSTEM (eV)
  free  energy   TOTEN  =       -86.55347304 eV

  energy  without entropy=      -86.55347304  energy(sigma->0) =      -86.55347304

 Linear response reoptimize wavefunctions
 Linear response G [H, r] |phi>, progress :
  Direction:   1

[...]

  free energy    TOTEN  =      -416.39265524 eV

[...]

 Linear response G [H, r] |phi>, progress :
  Direction:   2

[...]

 Linear response G [H, r] |phi>, progress :
  Direction:   3

[...]

  free energy    TOTEN  =      -463.41834748 eV

[...]

 Linear response to external field (no local field effect), progress :
  Direction:   1
  LATTYP: Found a hexagonal cell.
 ALAT       =     3.3197487879
 C/A-ratio  =    15.0613806029

[...]

The dynamic configuration has the point symmetry C_2 .

[...]

 Free energy of the ion-electron system (eV)
  -Hartree energ DENC   =         0.00000000
  -V(xc)+E(xc)   XCENC  =         0.00000000
  PAW double counting   =         0.00000000        0.00000000
  entropy T*S    EENTRO =         0.00000000
  eigenvalues    EBANDS =        -8.67592646
  free energy    TOTEN  =        -8.67592646 eV

  energy without entropy =       -8.67592646

[...]

 change of polarisation eV/A/(eV/A) component  1 :    22.744    -2.091    -0.114
 dielectric tensor                  component  1 :     9.624    -0.793    -0.043

[...]

The dynamic configuration has the point symmetry C_1h.

[...]

 Linear response to external field (no local field effect), progress :
  Direction:   3
  LATTYP: Found a hexagonal cell.
 ALAT       =     3.3197487879
 C/A-ratio  =    15.0613806029

[...]

The dynamic configuration has the point symmetry C_1h.
 The point group associated with its full space group is C_3v.

[...]

 HEAD OF MICROSCOPIC STATIC DIELECTRIC TENSOR (INDEPENDENT PARTICLE, excluding Hartree and local field effects)
           9.658948     0.000000     0.000000
           0.000000     9.658948     0.000000
           0.000000    -0.000000     6.151635

 Linear response to external field, progress :
  Direction:   1
  LATTYP: Found a hexagonal cell.
 ALAT       =     3.3197487879
 C/A-ratio  =    15.0613806029

[...]

The dynamic configuration has the point symmetry C_2 .

[...]

  Parameters of vdW forcefield:
            C6ts              R0ts           ALPHAts        RELVOL
            (au)              (au)            (au)
   Mo       1086.648          4.138         90.875          1.028
   Mo       1094.560          4.143         91.205          1.031
   Mo       1094.560          4.143         91.205          1.031
   Mo       1086.648          4.138         90.875          1.028
   Se        215.628          4.062         25.333          1.013
   Se        211.148          4.048         25.068          1.003
   Se        215.639          4.062         25.333          1.013
   Se        215.625          4.062         25.333          1.013
   Se        215.625          4.062         25.333          1.013
   Se        215.639          4.062         25.333          1.013
   Se        211.148          4.048         25.068          1.003
   Se        215.628          4.062         25.333          1.013
  Edisp (eV):   -3.59341

[...]

 PIEZOELECTRIC TENSOR FIELD DIRECTION 1  (e Angst)
    -0.00705  0.00000  0.00000           ( -0.00121  0.00000  0.00000)
     0.00000  0.00894  0.00023           (  0.00000  0.00068  0.00001)
     0.00000  0.00023 -0.00152           (  0.00000  0.00001 -0.00027)

 PIEZOELECTRIC TENSOR FIELD DIRECTION 1  (C/m^2)
    -0.00024  0.00000  0.00000
     0.00000  0.00030  0.00001
     0.00000  0.00001 -0.00005

      POSITION         DIRECTION 1           BORN EFFECTIVE CHARGE    (rigid.aug.   ionic)
     -0.00000      0.95833     15.31000    -1.77974 -0.00002  0.00003 (  0.16872 14.00000)
      1.65987      1.91666     21.77000    -1.76847 -0.00001  0.00000 (  0.16859 14.00000)
     -0.00000      0.95833     28.23000    -1.76847  0.00001 -0.00000 (  0.16859 14.00000)
      1.65987      1.91666     34.69000    -1.77974  0.00002 -0.00003 (  0.16872 14.00000)
      1.65987      1.91666     16.97903     0.86444 -0.00168  0.00019 (  1.12429  6.00000)
      1.65987      1.91666     13.64097     0.88015 -0.00162 -0.00010 (  1.12264  6.00000)
     -0.00000      0.95833     23.43903     0.86657  0.00172  0.00018 (  1.12432  6.00000)
     -0.00000      0.95833     20.10097     0.86723  0.00170 -0.00019 (  1.12431  6.00000)
      1.65987      1.91666     29.89903     0.86723 -0.00170  0.00019 (  1.12431  6.00000)
      1.65987      1.91666     26.56097     0.86657 -0.00172 -0.00018 (  1.12432  6.00000)
     -0.00000      0.95833     36.35903     0.88015  0.00162  0.00010 (  1.12264  6.00000)
     -0.00000      0.95833     33.02097     0.86444  0.00168 -0.00019 (  1.12429  6.00000)
    total drift (improves with k-points):  -0.13962  0.00000  0.00000

[...]

The dynamic configuration has the point symmetry C_1h.

[...]

 Linear response to external field, progress :
  Direction:   3
  LATTYP: Found a hexagonal cell.
 ALAT       =     3.3197487879
 C/A-ratio  =    15.0613806029

[...]

The dynamic configuration has the point symmetry C_1h.
 The point group associated with its full space group is C_3v.

[...]

----------------------------------------- Iteration    3(  25)  ---------------------------------------

 Broyden mixing:
  rms(total) = 0.45901E-06    rms(broyden)= 0.45848E-06
  rms(prec ) = 0.71331E-06
  weight for this iteration     100.00

 eigenvalues of (default mixing * dielectric matrix)
  average eigenvalue GAMMA=   2.1480
  8.9588  6.7320  4.3465  4.3465  3.0173  3.0173  2.2655  2.2655  1.8057  1.8057
  1.4302  1.1345  0.9058  0.9058  0.9856  0.9856  0.9385  0.6979  0.6672  0.5407
  0.5443  0.5488  0.5582

 Free energy of the ion-electron system (eV)
  -Hartree energ DENC   =        -0.85473998
  -V(xc)+E(xc)   XCENC  =         0.01296062
  PAW double counting   =         0.03518606       -0.03485392
  entropy T*S    EENTRO =         0.00000000
  eigenvalues    EBANDS =        -0.26059218
  free energy    TOTEN  =        -1.10203940 eV

  energy without entropy =       -1.10203940

------------------------ aborting loop because EDIFF is reached ----------------------------------------

 change of polarisation eV/A/(eV/A) component  3 :    -0.010     0.002     2.165
 dielectric tensor                  component  3 :    -0.004     0.001     1.821

[...]

  Hirshfeld charges:
            ion         q(e)
      1     Mo          0.310
      2     Mo          0.308
      3     Mo          0.308
      4     Mo          0.310
      5     Se         -0.154
      6     Se         -0.155
      7     Se         -0.154
      8     Se         -0.154
      9     Se         -0.154
     10     Se         -0.154
     11     Se         -0.155
     12     Se         -0.154

  Tkatchenko/Scheffler method for vdW energy calculation

  Parameters of vdW forcefield:
            C6ts              R0ts           ALPHAts        RELVOL
            (au)              (au)            (au)
   Mo       1086.649          4.138         90.875          1.028
   Mo       1094.560          4.143         91.205          1.031
   Mo       1094.560          4.143         91.205          1.031
   Mo       1086.648          4.138         90.875          1.028
   Se        215.628          4.062         25.333          1.013
   Se        211.148          4.048         25.068          1.003
   Se        215.639          4.062         25.333          1.013
   Se        215.625          4.062         25.333          1.013
   Se        215.625          4.062         25.333          1.013
   Se        215.639          4.062         25.333          1.013
   Se        211.148          4.048         25.068          1.003
   Se        215.629          4.062         25.333          1.013
  Edisp (eV):   -3.59341

 PIEZOELECTRIC TENSOR FIELD DIRECTION 3  (e Angst)
     0.19922  0.00000  0.00000           ( -0.00000  0.00000  0.00000)
    -0.00000  0.19922 -0.00000           (  0.00000 -0.00000  0.00000)
     0.00000  0.00000  0.01874           (  0.00000  0.00000  0.00001)

 PIEZOELECTRIC TENSOR FIELD DIRECTION 3  (C/m^2)
     0.00669  0.00000  0.00000
    -0.00000  0.00669 -0.00000
     0.00000  0.00000  0.00063

      POSITION         DIRECTION 3           BORN EFFECTIVE CHARGE    (rigid.aug.   ionic)
     -0.00000      0.95833     15.31000     0.00000 -0.00000-42.31493 (  0.16872 14.00000)
      1.65987      1.91666     21.77000     0.00000  0.00000 -4.64418 (  0.16859 14.00000)
     -0.00000      0.95833     28.23000     0.00000  0.00000 -4.63269 (  0.16859 14.00000)
      1.65987      1.91666     34.69000     0.00000  0.00000-42.32752 (  0.16872 14.00000)
      1.65987      1.91666     16.97903     0.00000 -0.00000  0.09084 (  1.12429  6.00000)
      1.65987      1.91666     13.64097     0.00000 -0.00000  3.59543 (  1.12264  6.00000)
     -0.00000      0.95833     23.43903     0.00000 -0.00000  0.29836 (  1.12432  6.00000)
     -0.00000      0.95833     20.10097     0.00000 -0.00000 -0.06113 (  1.12431  6.00000)
      1.65987      1.91666     29.89903    -0.00000 -0.00000  0.03281 (  1.12431  6.00000)
      1.65987      1.91666     26.56097     0.00000 -0.00000  0.34917 (  1.12432  6.00000)
     -0.00000      0.95833     36.35903     0.00000 -0.00000  3.53651 (  1.12264  6.00000)
     -0.00000      0.95833     33.02097    -0.00000  0.00000 -0.03435 (  1.12429  6.00000)
    total drift (improves with k-points):   0.00000 -0.00000-86.11170

[...]

 MACROSCOPIC STATIC DIELECTRIC TENSOR (including local field effects in DFT)
           9.215200     0.000000    -0.000000
          -0.000000     9.215200     0.000000
           0.000000     0.000000     1.820807

  LATTYP: Found a hexagonal cell.
 ALAT       =     3.3197487879
 C/A-ratio  =    15.0613806029

  Lattice vectors:

 A1 = (   3.3197487879,   0.0000000000,   0.0000000000)
 A2 = (  -1.6598743939,   2.8749867845,   0.0000000000)
 A3 = (   0.0000000000,   0.0000000000,  50.0000000000)

Analysis of symmetry for initial positions (statically):
 Subroutine PRICEL returns:
 Original cell was already a primitive cell.

[...]

The static configuration has the point symmetry C_2h.
 The point group associated with its full space group is D_3d.

Analysis of symmetry for dynamics (positions and initial velocities):
 Subroutine PRICEL returns:
 Original cell was already a primitive cell.

 Routine SETGRP: Setting up the symmetry group for a
 hexagonal supercell.

 Subroutine GETGRP returns: Found 12 space group operations
 (whereof  4 operations were pure point group operations)
 out of a pool of 24 trial point group operations.

The dynamic configuration has the point symmetry C_2h.
 The point group associated with its full space group is D_3d.

 Subroutine INISYM returns: Found 12 space group operations
 (whereof  4 operations are pure point group operations),
 and found     1 'primitive' translations

 MACROSCOPIC STATIC DIELECTRIC TENSOR (including local field effects in DFT)
           9.215200     0.000000    -0.000000
          -0.000000     9.215200     0.000000
           0.000000     0.000000     1.820807

 PIEZOELECTRIC TENSOR  for field in x, y, z        (e  Angst)
          XX          YY          ZZ          XY          YZ          ZX
  x    -0.00705     0.00894    -0.00152     0.00000     0.00023     0.00000
  y    -0.00985     0.01697    -0.00097     0.00000     0.00028     0.00000
  z     0.19922     0.19922     0.01874    -0.00000     0.00000     0.00000

 PIEZOELECTRIC TENSOR  for field in x, y, z        (C/m^2)
          XX          YY          ZZ          XY          YZ          ZX
  x     0.00000     0.00000     0.00000     0.00000     0.00000     0.00000
  y     0.00000     0.00000     0.00000     0.00000     0.00000     0.00000
  z     0.00000     0.00000     0.00000     0.00000     0.00000     0.00000

 BORN EFFECTIVE CHARGES (in e, cummulative output)
 ion    1
    1    -1.77974    -0.00002     0.00003
    2     0.00000    -1.78023    -0.00006
    3     0.00000    -0.00000   -42.31493
 ion    2
    1    -1.76847    -0.00001     0.00000
    2    -0.00000    -1.76788     0.00000
    3     0.00000     0.00000    -4.64418
 ion    3
    1    -1.76847     0.00001    -0.00000
    2    -0.00000    -1.76904    -0.00000
    3     0.00000     0.00000    -4.63269
 ion    4
    1    -1.77974     0.00002    -0.00003
    2     0.00000    -1.77922     0.00006
    3     0.00000     0.00000   -42.32752
 ion    5
    1     0.86444    -0.00168     0.00019
    2     0.00000     0.86481     0.00115
    3     0.00000    -0.00000     0.09084
 ion    6
    1     0.88015    -0.00162    -0.00010
    2     0.00000     0.88048    -0.00067
    3     0.00000    -0.00000     3.59543
 ion    7
    1     0.86657     0.00172     0.00018
    2     0.00000     0.86619     0.00108
    3     0.00000    -0.00000     0.29836
 ion    8
    1     0.86723     0.00170    -0.00019
    2     0.00000     0.86686    -0.00108
    3     0.00000    -0.00000    -0.06113
 ion    9
    1     0.86723    -0.00170     0.00019
    2    -0.00000     0.86760     0.00109
    3    -0.00000    -0.00000     0.03281
 ion   10
    1     0.86657    -0.00172    -0.00018
    2    -0.00000     0.86697    -0.00109
    3     0.00000    -0.00000     0.34917
 ion   11
    1     0.88015     0.00162     0.00010
    2     0.00000     0.87983     0.00066
    3     0.00000    -0.00000     3.53651
 ion   12
    1     0.86444     0.00168    -0.00019
    2     0.00000     0.86407    -0.00114
    3    -0.00000     0.00000    -0.03435

 writing wavefunctions
 BZINTS: Fermi energy:  0.944789;104.000000 electrons
         Band energy:***********;  BLOECHL correction:  0.000000