 vasp.5.4.1 24Jun15 (build Apr 13 2016 13:07:19) complex

 executed on           IFC91_ompi date 2019.09.14  01:46:59

 INCAR:
 POTCAR:    PAW_PBE Mo_sv_GW 05Dec2013
 POTCAR:    PAW_PBE Te_GW 22Mar2012

 POTCAR:    PAW_PBE Mo_sv_GW 05Dec2013
   VRHFIN =Mo: 4s4p5s4d

   TITEL  = PAW_PBE Mo_sv_GW 05Dec2013
   POMASS =   95.940; ZVAL   =   14.000    mass and valenz
   ENMAX  =  344.914; ENMIN  =  258.686 eV

 POTCAR:    PAW_PBE Te_GW 22Mar2012
   VRHFIN =Te: s2p4

   TITEL  = PAW_PBE Te_GW 22Mar2012
   POMASS =  127.600; ZVAL   =    6.000    mass and valenz
   ENMAX  =  174.982; ENMIN  =  131.236 eV

  PAW_PBE Mo_sv_GW 05Dec2013            :
  PAW_PBE Te_GW 22Mar2012               :

 POSCAR: Mo Te
  positions in cartesian coordinates
 exchange correlation table for  LEXCH =        8
   RHO(1)=    0.500       N(1)  =     2000
   RHO(2)=  100.500       N(2)  =     4000

 ion  position               nearest neighbor table
   1  0.167  0.333  0.221-   6 2.73   7 2.73   6 2.73   7 2.73   6 2.73   7 2.73
   2  0.833  0.667  0.360-   8 2.73   9 2.73   8 2.73   9 2.73   8 2.73   9 2.73
   3  0.167  0.333  0.500-  10 2.73  11 2.73  10 2.73  11 2.73  10 2.73  11 2.73
   4  0.833  0.667  0.640-  12 2.73  13 2.73  12 2.73  13 2.73  12 2.73  13 2.73
   5  0.167  0.333  0.779-  14 2.73  15 2.73  14 2.73  15 2.73  14 2.73  15 2.73
   6  0.833  0.667  0.257-   1 2.73   1 2.73   1 2.73   7 3.61
   7  0.833  0.667  0.185-   1 2.73   1 2.73   1 2.73   6 3.61
   8  0.167  0.333  0.397-   2 2.73   2 2.73   2 2.73   9 3.61
   9  0.167  0.333  0.324-   2 2.73   2 2.73   2 2.73   8 3.61
  10  0.833  0.667  0.536-   3 2.73   3 2.73   3 2.73  11 3.61
  11  0.833  0.667  0.464-   3 2.73   3 2.73   3 2.73  10 3.61
  12  0.167  0.333  0.676-   4 2.73   4 2.73   4 2.73  13 3.61
  13  0.167  0.333  0.603-   4 2.73   4 2.73   4 2.73  12 3.61
  14  0.833  0.667  0.815-   5 2.73   5 2.73   5 2.73  15 3.61
  15  0.833  0.667  0.743-   5 2.73   5 2.73   5 2.73  14 3.61

  LATTYP: Found a hexagonal cell.
 ALAT       =     3.5473923118
 C/A-ratio  =    14.0948605637

  Lattice vectors:

 A1 = (   3.5473923118,   0.0000000000,   0.0000000000)
 A2 = (  -1.7736961559,   3.0721318592,   0.0000000000)
 A3 = (   0.0000000000,   0.0000000000,  50.0000000000)

Analysis of symmetry for initial positions (statically):
 Subroutine PRICEL returns:
 Original cell was already a primitive cell.

 Routine SETGRP: Setting up the symmetry group for a
 hexagonal supercell.

 Subroutine GETGRP returns: Found 12 space group operations
 (whereof  4 operations were pure point group operations)
 out of a pool of 24 trial point group operations.

The static configuration has the point symmetry C_2v.
 The point group associated with its full space group is D_3h.

Analysis of symmetry for dynamics (positions and initial velocities):
 Subroutine PRICEL returns:
 Original cell was already a primitive cell.

[...]

The dynamic configuration has the point symmetry C_2v.
 The point group associated with its full space group is D_3h.

 Subroutine INISYM returns: Found 12 space group operations
 (whereof  4 operations are pure point group operations),
 and found     1 'primitive' translations

 KPOINTS: KPOINTS created by Atomic Simulation Env

Automatic generation of k-mesh.
Space group operators:
 irot       det(A)        alpha          n_x          n_y          n_z        tau_x        tau_y        tau_z
    1     1.000000     0.000001     1.000000     0.000000     0.000000     0.000000     0.000000     0.000000
    2    -1.000000   179.999999     0.000000     0.000000     1.000000     0.000000     0.000000     0.000000
    3    -1.000000   180.000000     1.000000     0.000000     0.000000     0.000000     0.000000     0.000000
    4     1.000000   179.999999     0.000000     1.000000     0.000000     0.000000     0.000000     0.000000
    5    -1.000000    60.000000     0.000000     0.000000    -1.000000     0.000000     0.500000     0.000000
    6     1.000000   120.000000     0.000000     0.000000    -1.000000     0.500000     0.500000     0.000000
    7     1.000000   120.000000     0.000000     0.000000     1.000000     0.000000     0.500000     0.000000
    8    -1.000000    60.000000     0.000000     0.000000     1.000000     0.500000     0.500000     0.000000
    9     1.000000   180.000000     0.866025    -0.500000     0.000000     0.500000     0.500000     0.000000
   10    -1.000000   180.000000     0.500000    -0.866025     0.000000     0.000000     0.500000     0.000000
   11    -1.000000   180.000000    -0.500000    -0.866025     0.000000     0.500000     0.500000     0.000000
   12     1.000000   180.000000     0.866025     0.500000     0.000000     0.000000     0.500000     0.000000

 Subroutine IBZKPT returns following result:

 Found     37 irreducible k-points:

 Following reciprocal coordinates:
            Coordinates               Weight
  0.000000  0.000000  0.000000      1.000000
  0.055556  0.000000  0.000000      6.000000
  0.111111  0.000000  0.000000      6.000000
  0.166667  0.000000  0.000000      6.000000
  0.222222  0.000000  0.000000      6.000000
  0.277778  0.000000  0.000000      6.000000
  0.333333  0.000000  0.000000      6.000000
  0.388889  0.000000  0.000000      6.000000
  0.444444  0.000000  0.000000      6.000000
  0.500000  0.000000  0.000000      3.000000
  0.055556  0.055556  0.000000      6.000000
  0.111111  0.055556  0.000000     12.000000
  0.166667  0.055556  0.000000     12.000000
  0.222222  0.055556  0.000000     12.000000
  0.277778  0.055556  0.000000     12.000000
  0.333333  0.055556  0.000000     12.000000
  0.388889  0.055556  0.000000     12.000000
  0.444444  0.055556  0.000000     12.000000
  0.111111  0.111111  0.000000      6.000000
  0.166667  0.111111  0.000000     12.000000
  0.222222  0.111111  0.000000     12.000000
  0.277778  0.111111  0.000000     12.000000
  0.333333  0.111111  0.000000     12.000000
  0.388889  0.111111  0.000000     12.000000
  0.444444  0.111111  0.000000      6.000000
  0.166667  0.166667  0.000000      6.000000
  0.222222  0.166667  0.000000     12.000000
  0.277778  0.166667  0.000000     12.000000
  0.333333  0.166667  0.000000     12.000000
  0.388889  0.166667  0.000000     12.000000
  0.222222  0.222222  0.000000      6.000000
  0.277778  0.222222  0.000000     12.000000
  0.333333  0.222222  0.000000     12.000000
  0.388889  0.222222  0.000000      6.000000
  0.277778  0.277778  0.000000      6.000000
  0.333333  0.277778  0.000000     12.000000
  0.333333  0.333333  0.000000      2.000000

 Following cartesian coordinates:
            Coordinates               Weight
  0.000000  0.000000  0.000000      1.000000
  0.015661  0.009042  0.000000      6.000000
  0.031322  0.018084  0.000000      6.000000
  0.046983  0.027126  0.000000      6.000000
  0.062644  0.036167  0.000000      6.000000
  0.078305  0.045209  0.000000      6.000000
  0.093966  0.054251  0.000000      6.000000
  0.109627  0.063293  0.000000      6.000000
  0.125288  0.072335  0.000000      6.000000
  0.140949  0.081377  0.000000      3.000000
  0.015661  0.027126  0.000000      6.000000
  0.031322  0.036167  0.000000     12.000000
  0.046983  0.045209  0.000000     12.000000
  0.062644  0.054251  0.000000     12.000000
  0.078305  0.063293  0.000000     12.000000
  0.093966  0.072335  0.000000     12.000000
  0.109627  0.081377  0.000000     12.000000
  0.125288  0.090419  0.000000     12.000000
  0.031322  0.054251  0.000000      6.000000
  0.046983  0.063293  0.000000     12.000000
  0.062644  0.072335  0.000000     12.000000
  0.078305  0.081377  0.000000     12.000000
  0.093966  0.090419  0.000000     12.000000
  0.109627  0.099460  0.000000     12.000000
  0.125288  0.108502  0.000000      6.000000
  0.046983  0.081377  0.000000      6.000000
  0.062644  0.090419  0.000000     12.000000
  0.078305  0.099460  0.000000     12.000000
  0.093966  0.108502  0.000000     12.000000
  0.109627  0.117544  0.000000     12.000000
  0.062644  0.108502  0.000000      6.000000
  0.078305  0.117544  0.000000     12.000000
  0.093966  0.126586  0.000000     12.000000
  0.109627  0.135628  0.000000      6.000000
  0.078305  0.135628  0.000000      6.000000
  0.093966  0.144670  0.000000     12.000000
  0.093966  0.162753  0.000000      2.000000

 TETIRR: Found    169 inequivalent tetrahedra from     1944

 Subroutine IBZKPT_HF returns following result:

 Found    324 k-points in 1st BZ
 the following    324 k-points will be used (e.g. in the exchange kernel)
 Following reciprocal coordinates:   # in IRBZ
  0.000000  0.000000  0.000000    0.00308642   1 t-inv F
  0.055556  0.000000  0.000000    0.00308642   2 t-inv F
  0.111111  0.000000  0.000000    0.00308642   3 t-inv F
  0.166667  0.000000  0.000000    0.00308642   4 t-inv F
  0.222222  0.000000  0.000000    0.00308642   5 t-inv F
  0.277778  0.000000  0.000000    0.00308642   6 t-inv F
  0.333333  0.000000  0.000000    0.00308642   7 t-inv F
  0.388889  0.000000  0.000000    0.00308642   8 t-inv F
  0.444444  0.000000  0.000000    0.00308642   9 t-inv F
  0.500000  0.000000  0.000000    0.00308642  10 t-inv F
  0.055556  0.055556  0.000000    0.00308642  11 t-inv F
  0.111111  0.055556  0.000000    0.00308642  12 t-inv F
  0.166667  0.055556  0.000000    0.00308642  13 t-inv F
  0.222222  0.055556  0.000000    0.00308642  14 t-inv F
  0.277778  0.055556  0.000000    0.00308642  15 t-inv F
  0.333333  0.055556  0.000000    0.00308642  16 t-inv F
  0.388889  0.055556  0.000000    0.00308642  17 t-inv F
  0.444444  0.055556  0.000000    0.00308642  18 t-inv F
  0.111111  0.111111  0.000000    0.00308642  19 t-inv F
  0.166667  0.111111  0.000000    0.00308642  20 t-inv F
  0.222222  0.111111  0.000000    0.00308642  21 t-inv F
  0.277778  0.111111  0.000000    0.00308642  22 t-inv F
  0.333333  0.111111  0.000000    0.00308642  23 t-inv F
  0.388889  0.111111  0.000000    0.00308642  24 t-inv F
  0.444444  0.111111  0.000000    0.00308642  25 t-inv F
  0.166667  0.166667  0.000000    0.00308642  26 t-inv F
  0.222222  0.166667  0.000000    0.00308642  27 t-inv F
  0.277778  0.166667  0.000000    0.00308642  28 t-inv F
  0.333333  0.166667  0.000000    0.00308642  29 t-inv F
  0.388889  0.166667  0.000000    0.00308642  30 t-inv F
  0.222222  0.222222  0.000000    0.00308642  31 t-inv F
  0.277778  0.222222  0.000000    0.00308642  32 t-inv F
  0.333333  0.222222  0.000000    0.00308642  33 t-inv F
  0.388889  0.222222  0.000000    0.00308642  34 t-inv F
  0.277778  0.277778  0.000000    0.00308642  35 t-inv F
  0.333333  0.277778  0.000000    0.00308642  36 t-inv F
  0.333333  0.333333  0.000000    0.00308642  37 t-inv F
 -0.055556  0.055556  0.000000    0.00308642   2 t-inv F
  0.000000 -0.055556 -0.000000    0.00308642   2 t-inv F
 -0.111111  0.111111  0.000000    0.00308642   3 t-inv F
  0.000000 -0.111111 -0.000000    0.00308642   3 t-inv F
 -0.166667  0.166667  0.000000    0.00308642   4 t-inv F
  0.000000 -0.166667 -0.000000    0.00308642   4 t-inv F
 -0.222222  0.222222  0.000000    0.00308642   5 t-inv F
  0.000000 -0.222222 -0.000000    0.00308642   5 t-inv F
 -0.277778  0.277778  0.000000    0.00308642   6 t-inv F
[...]
   -.421E-06 0.243E-06 0.107E-09   0.623E-14 0.185E-13 0.455E-12   0.223E-16 0.542E-18 0.000E+00   -.385E-10 0.222E-10 -.828E-11

 POSITION                                       TOTAL-FORCE (eV/Angst)
     -0.00000      1.02404     11.04000         0.000000     -0.000000      0.028729
      1.77370      2.04809     18.02000        -0.000000      0.000000      0.000698
     -0.00000      1.02404     25.00000        -0.000000     -0.000000      0.000000
      1.77370      2.04809     31.98000        -0.000000     -0.000000     -0.000698
     -0.00000      1.02404     38.96000        -0.000000     -0.000000     -0.028729
      1.77370      2.04809     12.84510        -0.000000     -0.000000     -0.082481
      1.77370      2.04809      9.23490        -0.000000     -0.000000      0.050421
     -0.00000      1.02404     19.82510         0.000000     -0.000000     -0.102522
     -0.00000      1.02404     16.21490         0.000000      0.000000      0.103313
      1.77370      2.04809     26.80510         0.000000     -0.000000     -0.102900
      1.77370      2.04809     23.19490        -0.000000     -0.000000      0.102900
     -0.00000      1.02404     33.78510         0.000000      0.000000     -0.103313
     -0.00000      1.02404     30.17490         0.000000     -0.000000      0.102522
      1.77370      2.04809     40.76510         0.000000     -0.000000     -0.050421
      1.77370      2.04809     37.15490        -0.000000     -0.000000      0.082481
    total drift:                               -0.000000      0.000000      0.000000

  FREE ENERGIE OF THE ION-ELECTRON SYSTEM (eV)
  free  energy   TOTEN  =       -99.08069804 eV

  energy  without entropy=      -99.08069804  energy(sigma->0) =      -99.08069804

 Linear response reoptimize wavefunctions
 Linear response G [H, r] |phi>, progress :
  Direction:   1

[...]

  free energy    TOTEN  =      -623.56148223 eV

[...]

 Linear response G [H, r] |phi>, progress :
  Direction:   2

[...]

 Linear response G [H, r] |phi>, progress :
  Direction:   3

[...]

  free energy    TOTEN  =      -685.28364185 eV

[...]

 Linear response to external field (no local field effect), progress :
  Direction:   1
  LATTYP: Found a hexagonal cell.
 ALAT       =     3.5473923118
 C/A-ratio  =    14.0948605637

[...]

The dynamic configuration has the point symmetry C_1h.

[...]

 Free energy of the ion-electron system (eV)
  -Hartree energ DENC   =         0.00000000
  -V(xc)+E(xc)   XCENC  =         0.00000000
  PAW double counting   =         0.00000000        0.00000000
  entropy T*S    EENTRO =         0.00000000
  eigenvalues    EBANDS =       -11.85622788
  free energy    TOTEN  =       -11.85622788 eV

  energy without entropy =      -11.85622788

[...]

 change of polarisation eV/A/(eV/A) component  1 :    40.992    -1.128    -0.000
 dielectric tensor                  component  1 :    14.613    -0.375    -0.000

[...]

The dynamic configuration has the point symmetry C_2v.

[...]

 Linear response to external field (no local field effect), progress :
  Direction:   3
  LATTYP: Found a hexagonal cell.
 ALAT       =     3.5473923118
 C/A-ratio  =    14.0948605637

[...]

The dynamic configuration has the point symmetry C_1h.
 The point group associated with its full space group is C_3v.

[...]

 HEAD OF MICROSCOPIC STATIC DIELECTRIC TENSOR (INDEPENDENT PARTICLE, excluding Hartree and local field effects)
          14.965761    -0.000000     0.000000
           0.000000    14.965761     0.000000
           0.000000     0.000000     9.620445

 Linear response to external field, progress :
  Direction:   1
  LATTYP: Found a hexagonal cell.
 ALAT       =     3.5473923118
 C/A-ratio  =    14.0948605637

[...]

The dynamic configuration has the point symmetry C_1h.

[...]

  Parameters of vdW forcefield:
            C6ts              R0ts           ALPHAts        RELVOL
            (au)              (au)            (au)
   Mo       1114.302          4.156         92.024          1.041
   Mo       1118.989          4.159         92.217          1.043
   Mo       1118.992          4.159         92.217          1.043
   Mo       1118.989          4.159         92.217          1.043
   Mo       1114.302          4.156         92.024          1.041
   Te        411.621          4.241         38.385          1.020
   Te        403.998          4.228         38.028          1.010
   Te        411.642          4.241         38.386          1.020
   Te        411.623          4.241         38.385          1.020
   Te        411.641          4.241         38.386          1.020
   Te        411.641          4.241         38.386          1.020
   Te        411.623          4.241         38.385          1.020
   Te        411.642          4.241         38.386          1.020
   Te        403.998          4.228         38.028          1.010
   Te        411.621          4.241         38.385          1.020
  Edisp (eV):   -5.06384

[...]

 PIEZOELECTRIC TENSOR FIELD DIRECTION 1  (e Angst)
    -0.01071 -1.61403  0.00000           ( -0.00006  0.05669  0.00000)
    -1.61402  0.00571  0.00000           (  0.05669  0.00033  0.00000)
     0.00000  0.00000  0.00036           (  0.00000  0.00000  0.00016)

 PIEZOELECTRIC TENSOR FIELD DIRECTION 1  (C/m^2)
    -0.00031 -0.04746  0.00000
    -0.04746  0.00017  0.00000
     0.00000  0.00000  0.00001

      POSITION         DIRECTION 1           BORN EFFECTIVE CHARGE    (rigid.aug.   ionic)
     -0.00000      1.02404     11.04000    -3.20693 -0.00083  0.00004 (  0.16212 14.00000)
      1.77370      2.04809     18.02000    -3.19682  0.00089  0.00000 (  0.16198 14.00000)
     -0.00000      1.02404     25.00000    -3.20755 -0.00089  0.00000 (  0.16197 14.00000)
      1.77370      2.04809     31.98000    -3.19682  0.00089 -0.00000 (  0.16198 14.00000)
     -0.00000      1.02404     38.96000    -3.20693 -0.00083 -0.00004 (  0.16212 14.00000)
      1.77370      2.04809     12.84510     1.59321 -0.00030 -0.00048 (  1.18462  6.00000)
      1.77370      2.04809      9.23490     1.60211 -0.00033  0.00025 (  1.18399  6.00000)
     -0.00000      1.02404     19.82510     1.58691  0.00031 -0.00047 (  1.18459  6.00000)
     -0.00000      1.02404     16.21490     1.58873  0.00031  0.00047 (  1.18455  6.00000)
      1.77370      2.04809     26.80510     1.58705 -0.00030 -0.00047 (  1.18459  6.00000)
      1.77370      2.04809     23.19490     1.58705 -0.00030  0.00047 (  1.18459  6.00000)
     -0.00000      1.02404     33.78510     1.58873  0.00031 -0.00047 (  1.18455  6.00000)
     -0.00000      1.02404     30.17490     1.58691  0.00031  0.00047 (  1.18459  6.00000)
      1.77370      2.04809     40.76510     1.60211 -0.00033 -0.00025 (  1.18399  6.00000)
      1.77370      2.04809     37.15490     1.59321 -0.00030  0.00048 (  1.18462  6.00000)
    total drift (improves with k-points):  -0.09902 -0.00140  0.00000

[...]

The dynamic configuration has the point symmetry C_2v.

[...]

 Linear response to external field, progress :
  Direction:   3
  LATTYP: Found a hexagonal cell.
 ALAT       =     3.5473923118
 C/A-ratio  =    14.0948605637

[...]

The dynamic configuration has the point symmetry C_1h.
 The point group associated with its full space group is C_3v.

[...]

----------------------------------------- Iteration    3(  29)  ---------------------------------------

 Broyden mixing:
  rms(total) = 0.21302E-05    rms(broyden)= 0.21300E-05
  rms(prec ) = 0.21313E-05
  weight for this iteration     100.00

 eigenvalues of (default mixing * dielectric matrix)
  average eigenvalue GAMMA=   1.8440
  9.5386  6.0451  3.9951  3.4007  3.0152  2.8171  2.4558  2.0237  2.0237  1.5165
  1.2549  1.2549  1.0138  1.0138  1.0345  0.8960  0.8960  0.8015  0.6855  0.6937
  0.5515  0.5515  0.5200  0.5267  0.5241  0.4501  0.2872

 Free energy of the ion-electron system (eV)
  -Hartree energ DENC   =        -1.93858528
  -V(xc)+E(xc)   XCENC  =         0.03283722
  PAW double counting   =         0.07669488       -0.07557514
  entropy T*S    EENTRO =         0.00000000
  eigenvalues    EBANDS =        -0.75158405
  free energy    TOTEN  =        -2.65621238 eV

  energy without entropy =       -2.65621238

------------------------ aborting loop because EDIFF is reached ----------------------------------------

 change of polarisation eV/A/(eV/A) component  3 :    -0.000     0.000     5.193
 dielectric tensor                  component  3 :    -0.000     0.000     2.725

[...]

  Hirshfeld charges:
            ion         q(e)
      1     Mo          0.242
      2     Mo          0.241
      3     Mo          0.241
      4     Mo          0.241
      5     Mo          0.242
      6     Te         -0.121
      7     Te         -0.121
      8     Te         -0.120
      9     Te         -0.120
     10     Te         -0.120
     11     Te         -0.120
     12     Te         -0.120
     13     Te         -0.120
     14     Te         -0.121
     15     Te         -0.121

  Tkatchenko/Scheffler method for vdW energy calculation

  Parameters of vdW forcefield:
            C6ts              R0ts           ALPHAts        RELVOL
            (au)              (au)            (au)
   Mo       1114.302          4.156         92.024          1.041
   Mo       1118.989          4.159         92.217          1.043
   Mo       1118.992          4.159         92.217          1.043
   Mo       1118.989          4.159         92.217          1.043
   Mo       1114.302          4.156         92.024          1.041
   Te        411.621          4.241         38.385          1.020
   Te        403.998          4.228         38.028          1.010
   Te        411.642          4.241         38.386          1.020
   Te        411.623          4.241         38.385          1.020
   Te        411.641          4.241         38.386          1.020
   Te        411.641          4.241         38.386          1.020
   Te        411.622          4.241         38.385          1.020
   Te        411.643          4.241         38.386          1.020
   Te        403.998          4.228         38.028          1.010
   Te        411.621          4.241         38.385          1.020
  Edisp (eV):   -5.06384

 PIEZOELECTRIC TENSOR FIELD DIRECTION 3  (e Angst)
     0.00091 -0.00000 -0.00000           ( -0.00001  0.00000  0.00000)
     0.00000  0.00091  0.00000           (  0.00000 -0.00001  0.00000)
    -0.00000 -0.00000  0.00215           (  0.00000  0.00000 -0.00001)

 PIEZOELECTRIC TENSOR FIELD DIRECTION 3  (C/m^2)
     0.00003 -0.00000 -0.00000
     0.00000  0.00003  0.00000
    -0.00000 -0.00000  0.00006

      POSITION         DIRECTION 3           BORN EFFECTIVE CHARGE    (rigid.aug.   ionic)
     -0.00000      1.02404     11.04000     0.00000  0.00000-67.55650 (  0.16212 14.00000)
      1.77370      2.04809     18.02000    -0.00000  0.00000-20.45731 (  0.16198 14.00000)
     -0.00000      1.02404     25.00000     0.00000 -0.00000  0.22918 (  0.16197 14.00000)
      1.77370      2.04809     31.98000     0.00000  0.00000-20.45691 (  0.16198 14.00000)
     -0.00000      1.02404     38.96000     0.00000 -0.00000-67.55532 (  0.16212 14.00000)
      1.77370      2.04809     12.84510     0.00000 -0.00000 -8.50073 (  1.18462  6.00000)
      1.77370      2.04809      9.23490     0.00000  0.00000-17.45135 (  1.18399  6.00000)
     -0.00000      1.02404     19.82510     0.00000  0.00000 -0.33139 (  1.18459  6.00000)
     -0.00000      1.02404     16.21490    -0.00000  0.00000  1.66658 (  1.18455  6.00000)
      1.77370      2.04809     26.80510     0.00000 -0.00000  1.16429 (  1.18459  6.00000)
      1.77370      2.04809     23.19490    -0.00000  0.00000  1.16431 (  1.18459  6.00000)
     -0.00000      1.02404     33.78510    -0.00000  0.00000  1.66660 (  1.18455  6.00000)
     -0.00000      1.02404     30.17490     0.00000 -0.00000 -0.33136 (  1.18459  6.00000)
      1.77370      2.04809     40.76510    -0.00000  0.00000-17.45131 (  1.18399  6.00000)
      1.77370      2.04809     37.15490    -0.00000  0.00000 -8.50074 (  1.18462  6.00000)
    total drift (improves with k-points):   0.00000  0.00000*********

[...]

 MACROSCOPIC STATIC DIELECTRIC TENSOR (including local field effects in DFT)
          14.320515    -0.000000     0.000000
           0.000000    14.320515     0.000000
           0.000000     0.000000     2.724559

  LATTYP: Found a hexagonal cell.
 ALAT       =     3.5473923118
 C/A-ratio  =    14.0948605637

  Lattice vectors:

 A1 = (   3.5473923118,   0.0000000000,   0.0000000000)
 A2 = (  -1.7736961559,   3.0721318592,   0.0000000000)
 A3 = (   0.0000000000,   0.0000000000,  50.0000000000)

Analysis of symmetry for initial positions (statically):
 Subroutine PRICEL returns:
 Original cell was already a primitive cell.

[...]

The static configuration has the point symmetry C_2v.
 The point group associated with its full space group is D_3h.

Analysis of symmetry for dynamics (positions and initial velocities):
 Subroutine PRICEL returns:
 Original cell was already a primitive cell.

 Routine SETGRP: Setting up the symmetry group for a
 hexagonal supercell.

 Subroutine GETGRP returns: Found 12 space group operations
 (whereof  4 operations were pure point group operations)
 out of a pool of 24 trial point group operations.

The dynamic configuration has the point symmetry C_2v.
 The point group associated with its full space group is D_3h.

 Subroutine INISYM returns: Found 12 space group operations
 (whereof  4 operations are pure point group operations),
 and found     1 'primitive' translations

 MACROSCOPIC STATIC DIELECTRIC TENSOR (including local field effects in DFT)
          14.320515    -0.000000     0.000000
           0.000000    14.320515     0.000000
           0.000000     0.000000     2.724559

 PIEZOELECTRIC TENSOR  for field in x, y, z        (e  Angst)
          XX          YY          ZZ          XY          YZ          ZX
  x    -0.01071     0.00571     0.00036    -1.61402     0.00000     0.00000
  y    -1.63060     1.64174     0.00147     0.00000     0.00000     0.00000
  z     0.00091     0.00091     0.00215     0.00000    -0.00000    -0.00000

 PIEZOELECTRIC TENSOR  for field in x, y, z        (C/m^2)
          XX          YY          ZZ          XY          YZ          ZX
  x     0.00000    -0.00000    -0.00000    -0.04778     0.00000     0.00000
  y    -0.04778     0.04778     0.00000     0.00000     0.00000     0.00000
  z     0.00000     0.00000     0.00000     0.00000     0.00000     0.00000

 BORN EFFECTIVE CHARGES (in e, cummulative output)
 ion    1
    1    -3.20693    -0.00083     0.00004
    2     0.00000    -3.20730    -0.00011
    3     0.00000     0.00000   -67.55650
 ion    2
    1    -3.19682     0.00089     0.00000
    2    -0.00000    -3.19656    -0.00000
    3    -0.00000     0.00000   -20.45731
 ion    3
    1    -3.20755    -0.00089     0.00000
    2    -0.00000    -3.20792     0.00000
    3     0.00000    -0.00000     0.22918
 ion    4
    1    -3.19682     0.00089    -0.00000
    2    -0.00000    -3.19656     0.00000
    3     0.00000     0.00000   -20.45691
 ion    5
    1    -3.20693    -0.00083    -0.00004
    2     0.00000    -3.20730     0.00011
    3     0.00000    -0.00000   -67.55532
 ion    6
    1     1.59321    -0.00030    -0.00048
    2     0.00000     1.59350     0.00132
    3     0.00000    -0.00000    -8.50073
 ion    7
    1     1.60211    -0.00033     0.00025
    2     0.00000     1.60227    -0.00073
    3     0.00000     0.00000   -17.45135
 ion    8
    1     1.58691     0.00031    -0.00047
    2     0.00000     1.58660     0.00124
    3     0.00000     0.00000    -0.33139
 ion    9
    1     1.58873     0.00031     0.00047
    2     0.00000     1.58843    -0.00124
    3    -0.00000     0.00000     1.66658
 ion   10
    1     1.58705    -0.00030    -0.00047
    2    -0.00000     1.58737     0.00125
    3     0.00000    -0.00000     1.16429
 ion   11
    1     1.58705    -0.00030     0.00047
    2    -0.00000     1.58737    -0.00125
    3    -0.00000     0.00000     1.16431
 ion   12
    1     1.58873     0.00031    -0.00047
    2     0.00000     1.58843     0.00124
    3    -0.00000     0.00000     1.66660
 ion   13
    1     1.58691     0.00031     0.00047
    2     0.00000     1.58660    -0.00124
    3     0.00000    -0.00000    -0.33136
 ion   14
    1     1.60211    -0.00033    -0.00025
    2     0.00000     1.60227     0.00073
    3    -0.00000     0.00000   -17.45131
 ion   15
    1     1.59321    -0.00030     0.00048
    2     0.00000     1.59350    -0.00132
    3    -0.00000     0.00000    -8.50074

 writing wavefunctions
 BZINTS: Fermi energy:  4.168401;130.000000 electrons
         Band energy:***********;  BLOECHL correction:  0.000000