 vasp.5.4.1 24Jun15 (build Apr 13 2016 13:07:19) complex

 executed on           IFC91_ompi date 2019.09.13  21:49:04

 INCAR:
 POTCAR:    PAW_PBE Mo_sv_GW 05Dec2013
 POTCAR:    PAW_PBE S_GW 19Mar2012

 POTCAR:    PAW_PBE Mo_sv_GW 05Dec2013
   VRHFIN =Mo: 4s4p5s4d

   TITEL  = PAW_PBE Mo_sv_GW 05Dec2013
   POMASS =   95.940; ZVAL   =   14.000    mass and valenz
   ENMAX  =  344.914; ENMIN  =  258.686 eV

 POTCAR:    PAW_PBE S_GW 19Mar2012
   VRHFIN =S : s2p4

   TITEL  = PAW_PBE S_GW 19Mar2012
   POMASS =   32.066; ZVAL   =    6.000    mass and valenz
   ENMAX  =  258.689; ENMIN  =  194.016 eV

  PAW_PBE Mo_sv_GW 05Dec2013            :
  PAW_PBE S_GW 19Mar2012                :

 POSCAR: Mo  S
  positions in cartesian coordinates
 exchange correlation table for  LEXCH =        8
   RHO(1)=    0.500       N(1)  =     2000
   RHO(2)=  100.500       N(2)  =     4000

 ion  position               nearest neighbor table
   1  0.167  0.333  0.254-   6 2.41   7 2.41   6 2.41   7 2.41   6 2.41   7 2.41
   2  0.833  0.667  0.377-   8 2.41   9 2.41   8 2.41   9 2.41   8 2.41   9 2.41
   3  0.167  0.333  0.500-  10 2.41  11 2.41  10 2.41  11 2.41  10 2.41  11 2.41
   4  0.833  0.667  0.623-  12 2.41  13 2.41  12 2.41  13 2.41  12 2.41  13 2.41
   5  0.167  0.333  0.746-  14 2.41  15 2.41  14 2.41  15 2.41  14 2.41  15 2.41
   6  0.833  0.667  0.285-   1 2.41   1 2.41   1 2.41
   7  0.833  0.667  0.223-   1 2.41   1 2.41   1 2.41
   8  0.167  0.333  0.408-   2 2.41   2 2.41   2 2.41
   9  0.167  0.333  0.346-   2 2.41   2 2.41   2 2.41
  10  0.833  0.667  0.531-   3 2.41   3 2.41   3 2.41
  11  0.833  0.667  0.469-   3 2.41   3 2.41   3 2.41
  12  0.167  0.333  0.654-   4 2.41   4 2.41   4 2.41
  13  0.167  0.333  0.592-   4 2.41   4 2.41   4 2.41
  14  0.833  0.667  0.777-   5 2.41   5 2.41   5 2.41
  15  0.833  0.667  0.715-   5 2.41   5 2.41   5 2.41

  LATTYP: Found a hexagonal cell.
 ALAT       =     3.1840664647
 C/A-ratio  =    15.7031897903

  Lattice vectors:

 A1 = (   3.1840664647,   0.0000000000,   0.0000000000)
 A2 = (  -1.5920332323,   2.7574824458,   0.0000000000)
 A3 = (   0.0000000000,   0.0000000000,  50.0000000000)

Analysis of symmetry for initial positions (statically):
 Subroutine PRICEL returns:
 Original cell was already a primitive cell.

 Routine SETGRP: Setting up the symmetry group for a
 hexagonal supercell.

 Subroutine GETGRP returns: Found 12 space group operations
 (whereof  4 operations were pure point group operations)
 out of a pool of 24 trial point group operations.

The static configuration has the point symmetry C_2v.
 The point group associated with its full space group is D_3h.

Analysis of symmetry for dynamics (positions and initial velocities):
 Subroutine PRICEL returns:
 Original cell was already a primitive cell.

[...]

The dynamic configuration has the point symmetry C_2v.
 The point group associated with its full space group is D_3h.

 Subroutine INISYM returns: Found 12 space group operations
 (whereof  4 operations are pure point group operations),
 and found     1 'primitive' translations

 KPOINTS: KPOINTS created by Atomic Simulation Env

Automatic generation of k-mesh.
Space group operators:
 irot       det(A)        alpha          n_x          n_y          n_z        tau_x        tau_y        tau_z
    1     1.000000     0.000000     1.000000     0.000000     0.000000     0.000000     0.000000     0.000000
    2    -1.000000   180.000000     0.000000     0.000000     1.000000     0.000000     0.000000     0.000000
    3    -1.000000   180.000000     1.000000     0.000000     0.000000     0.000000     0.000000     0.000000
    4     1.000000   180.000000     0.000000     1.000000     0.000000     0.000000     0.000000     0.000000
    5    -1.000000    60.000000     0.000000     0.000000    -1.000000     0.000000     0.500000     0.000000
    6     1.000000   120.000000     0.000000     0.000000    -1.000000     0.500000     0.500000     0.000000
    7     1.000000   120.000000     0.000000     0.000000     1.000000     0.000000     0.500000     0.000000
    8    -1.000000    60.000000     0.000000     0.000000     1.000000     0.500000     0.500000     0.000000
    9     1.000000   180.000000     0.866025    -0.500000     0.000000     0.500000     0.500000     0.000000
   10    -1.000000   180.000000     0.500000    -0.866025     0.000000     0.000000     0.500000     0.000000
   11    -1.000000   180.000000    -0.500000    -0.866025     0.000000     0.500000     0.500000     0.000000
   12     1.000000   180.000000     0.866025     0.500000     0.000000     0.000000     0.500000     0.000000

 Subroutine IBZKPT returns following result:

 Found     37 irreducible k-points:

 Following reciprocal coordinates:
            Coordinates               Weight
  0.000000  0.000000  0.000000      1.000000
  0.055556  0.000000  0.000000      6.000000
  0.111111  0.000000  0.000000      6.000000
  0.166667  0.000000  0.000000      6.000000
  0.222222  0.000000  0.000000      6.000000
  0.277778  0.000000  0.000000      6.000000
  0.333333  0.000000  0.000000      6.000000
  0.388889  0.000000  0.000000      6.000000
  0.444444  0.000000  0.000000      6.000000
  0.500000  0.000000  0.000000      3.000000
  0.055556  0.055556  0.000000      6.000000
  0.111111  0.055556  0.000000     12.000000
  0.166667  0.055556  0.000000     12.000000
  0.222222  0.055556  0.000000     12.000000
  0.277778  0.055556  0.000000     12.000000
  0.333333  0.055556  0.000000     12.000000
  0.388889  0.055556  0.000000     12.000000
  0.444444  0.055556  0.000000     12.000000
  0.111111  0.111111  0.000000      6.000000
  0.166667  0.111111  0.000000     12.000000
  0.222222  0.111111  0.000000     12.000000
  0.277778  0.111111  0.000000     12.000000
  0.333333  0.111111  0.000000     12.000000
  0.388889  0.111111  0.000000     12.000000
  0.444444  0.111111  0.000000      6.000000
  0.166667  0.166667  0.000000      6.000000
  0.222222  0.166667  0.000000     12.000000
  0.277778  0.166667  0.000000     12.000000
  0.333333  0.166667  0.000000     12.000000
  0.388889  0.166667  0.000000     12.000000
  0.222222  0.222222  0.000000      6.000000
  0.277778  0.222222  0.000000     12.000000
  0.333333  0.222222  0.000000     12.000000
  0.388889  0.222222  0.000000      6.000000
  0.277778  0.277778  0.000000      6.000000
  0.333333  0.277778  0.000000     12.000000
  0.333333  0.333333  0.000000      2.000000

 Following cartesian coordinates:
            Coordinates               Weight
  0.000000  0.000000  0.000000      1.000000
  0.017448  0.010074  0.000000      6.000000
  0.034896  0.020147  0.000000      6.000000
  0.052344  0.030221  0.000000      6.000000
  0.069792  0.040294  0.000000      6.000000
  0.087240  0.050368  0.000000      6.000000
  0.104688  0.060442  0.000000      6.000000
  0.122136  0.070515  0.000000      6.000000
  0.139584  0.080589  0.000000      6.000000
  0.157032  0.090662  0.000000      3.000000
  0.017448  0.030221  0.000000      6.000000
  0.034896  0.040294  0.000000     12.000000
  0.052344  0.050368  0.000000     12.000000
  0.069792  0.060442  0.000000     12.000000
  0.087240  0.070515  0.000000     12.000000
  0.104688  0.080589  0.000000     12.000000
  0.122136  0.090662  0.000000     12.000000
  0.139584  0.100736  0.000000     12.000000
  0.034896  0.060442  0.000000      6.000000
  0.052344  0.070515  0.000000     12.000000
  0.069792  0.080589  0.000000     12.000000
  0.087240  0.090662  0.000000     12.000000
  0.104688  0.100736  0.000000     12.000000
  0.122136  0.110810  0.000000     12.000000
  0.139584  0.120883  0.000000      6.000000
  0.052344  0.090662  0.000000      6.000000
  0.069792  0.100736  0.000000     12.000000
  0.087240  0.110810  0.000000     12.000000
  0.104688  0.120883  0.000000     12.000000
  0.122136  0.130957  0.000000     12.000000
  0.069792  0.120883  0.000000      6.000000
  0.087240  0.130957  0.000000     12.000000
  0.104688  0.141030  0.000000     12.000000
  0.122136  0.151104  0.000000      6.000000
  0.087240  0.151104  0.000000      6.000000
  0.104688  0.161178  0.000000     12.000000
  0.104688  0.181325  0.000000      2.000000

 TETIRR: Found    169 inequivalent tetrahedra from     1944

 Subroutine IBZKPT_HF returns following result:

 Found    324 k-points in 1st BZ
 the following    324 k-points will be used (e.g. in the exchange kernel)
 Following reciprocal coordinates:   # in IRBZ
  0.000000  0.000000  0.000000    0.00308642   1 t-inv F
  0.055556  0.000000  0.000000    0.00308642   2 t-inv F
  0.111111  0.000000  0.000000    0.00308642   3 t-inv F
  0.166667  0.000000  0.000000    0.00308642   4 t-inv F
  0.222222  0.000000  0.000000    0.00308642   5 t-inv F
  0.277778  0.000000  0.000000    0.00308642   6 t-inv F
  0.333333  0.000000  0.000000    0.00308642   7 t-inv F
  0.388889  0.000000  0.000000    0.00308642   8 t-inv F
  0.444444  0.000000  0.000000    0.00308642   9 t-inv F
  0.500000  0.000000  0.000000    0.00308642  10 t-inv F
  0.055556  0.055556  0.000000    0.00308642  11 t-inv F
  0.111111  0.055556  0.000000    0.00308642  12 t-inv F
  0.166667  0.055556  0.000000    0.00308642  13 t-inv F
  0.222222  0.055556  0.000000    0.00308642  14 t-inv F
  0.277778  0.055556  0.000000    0.00308642  15 t-inv F
  0.333333  0.055556  0.000000    0.00308642  16 t-inv F
  0.388889  0.055556  0.000000    0.00308642  17 t-inv F
  0.444444  0.055556  0.000000    0.00308642  18 t-inv F
  0.111111  0.111111  0.000000    0.00308642  19 t-inv F
  0.166667  0.111111  0.000000    0.00308642  20 t-inv F
  0.222222  0.111111  0.000000    0.00308642  21 t-inv F
  0.277778  0.111111  0.000000    0.00308642  22 t-inv F
  0.333333  0.111111  0.000000    0.00308642  23 t-inv F
  0.388889  0.111111  0.000000    0.00308642  24 t-inv F
  0.444444  0.111111  0.000000    0.00308642  25 t-inv F
  0.166667  0.166667  0.000000    0.00308642  26 t-inv F
  0.222222  0.166667  0.000000    0.00308642  27 t-inv F
  0.277778  0.166667  0.000000    0.00308642  28 t-inv F
  0.333333  0.166667  0.000000    0.00308642  29 t-inv F
  0.388889  0.166667  0.000000    0.00308642  30 t-inv F
  0.222222  0.222222  0.000000    0.00308642  31 t-inv F
  0.277778  0.222222  0.000000    0.00308642  32 t-inv F
  0.333333  0.222222  0.000000    0.00308642  33 t-inv F
  0.388889  0.222222  0.000000    0.00308642  34 t-inv F
  0.277778  0.277778  0.000000    0.00308642  35 t-inv F
  0.333333  0.277778  0.000000    0.00308642  36 t-inv F
  0.333333  0.333333  0.000000    0.00308642  37 t-inv F
 -0.055556  0.055556  0.000000    0.00308642   2 t-inv F
  0.000000 -0.055556 -0.000000    0.00308642   2 t-inv F
 -0.111111  0.111111  0.000000    0.00308642   3 t-inv F
  0.000000 -0.111111 -0.000000    0.00308642   3 t-inv F
 -0.166667  0.166667  0.000000    0.00308642   4 t-inv F
  0.000000 -0.166667 -0.000000    0.00308642   4 t-inv F
 -0.222222  0.222222  0.000000    0.00308642   5 t-inv F
  0.000000 -0.222222 -0.000000    0.00308642   5 t-inv F
 -0.277778  0.277778  0.000000    0.00308642   6 t-inv F
  0.000000 -0.277778 -0.000000    0.00308642   6 t-inv F
 -0.333333  0.333333  0.000000    0.00308642   7 t-inv F
[...]
   -.339E-06 0.196E-06 0.232E-09   0.784E-13 0.191E-12 0.182E-11   0.364E-16 -.272E-15 -.888E-15   0.410E-09 -.237E-09 -.272E-10

 POSITION                                       TOTAL-FORCE (eV/Angst)
     -0.00000      0.91916     12.70000        -0.000000      0.000000      0.083419
      1.59203      1.83832     18.85000        -0.000000      0.000000      0.002728
     -0.00000      0.91916     25.00000        -0.000000      0.000000      0.000000
      1.59203      1.83832     31.15000        -0.000000      0.000000     -0.002728
     -0.00000      0.91916     37.30000        -0.000000      0.000000     -0.083419
      1.59203      1.83832     14.26356         0.000000      0.000000     -0.092763
      1.59203      1.83832     11.13644         0.000000      0.000000      0.042822
     -0.00000      0.91916     20.41356         0.000000      0.000000     -0.106161
     -0.00000      0.91916     17.28644        -0.000000     -0.000000      0.108220
      1.59203      1.83832     26.56356        -0.000000      0.000000     -0.106727
      1.59203      1.83832     23.43644         0.000000      0.000000      0.106727
     -0.00000      0.91916     32.71356        -0.000000     -0.000000     -0.108220
     -0.00000      0.91916     29.58644        -0.000000      0.000000      0.106161
      1.59203      1.83832     38.86356         0.000000     -0.000000     -0.042822
      1.59203      1.83832     35.73644        -0.000000      0.000000      0.092763
    total drift:                               -0.000000      0.000000      0.000000

  FREE ENERGIE OF THE ION-ELECTRON SYSTEM (eV)
  free  energy   TOTEN  =      -117.29038218 eV

  energy  without entropy=     -117.29038218  energy(sigma->0) =     -117.29038218

 Linear response reoptimize wavefunctions
 Linear response G [H, r] |phi>, progress :
  Direction:   1

[...]

  free energy    TOTEN  =      -499.80257477 eV

[...]

 Linear response G [H, r] |phi>, progress :
  Direction:   2

[...]

 Linear response G [H, r] |phi>, progress :
  Direction:   3

[...]

  free energy    TOTEN  =      -543.70765254 eV

[...]

 Linear response to external field (no local field effect), progress :
  Direction:   1
  LATTYP: Found a hexagonal cell.
 ALAT       =     3.1840664647
 C/A-ratio  =    15.7031897903

[...]

The dynamic configuration has the point symmetry C_1h.

[...]

 Free energy of the ion-electron system (eV)
  -Hartree energ DENC   =         0.00000000
  -V(xc)+E(xc)   XCENC  =         0.00000000
  PAW double counting   =         0.00000000        0.00000000
  entropy T*S    EENTRO =         0.00000000
  eigenvalues    EBANDS =        -9.11043840
  free energy    TOTEN  =        -9.11043840 eV

  energy without entropy =       -9.11043840

[...]

 change of polarisation eV/A/(eV/A) component  1 :    22.949    -2.689     0.000
 dielectric tensor                  component  1 :    10.460    -1.108     0.000

[...]

The dynamic configuration has the point symmetry C_2v.

[...]

 Linear response to external field (no local field effect), progress :
  Direction:   3
  LATTYP: Found a hexagonal cell.
 ALAT       =     3.1840664647
 C/A-ratio  =    15.7031897903

[...]

The dynamic configuration has the point symmetry C_1h.
 The point group associated with its full space group is C_3v.

[...]

 HEAD OF MICROSCOPIC STATIC DIELECTRIC TENSOR (INDEPENDENT PARTICLE, excluding Hartree and local field effects)
          10.391851    -0.000000     0.000000
           0.000000    10.391851     0.000000
          -0.000000     0.000000     6.282960

 Linear response to external field, progress :
  Direction:   1
  LATTYP: Found a hexagonal cell.
 ALAT       =     3.1840664647
 C/A-ratio  =    15.7031897903

[...]

The dynamic configuration has the point symmetry C_1h.

[...]

  Parameters of vdW forcefield:
            C6ts              R0ts           ALPHAts        RELVOL
            (au)              (au)            (au)
   Mo       1059.772          4.121         89.744          1.015
   Mo       1070.541          4.128         90.199          1.020
   Mo       1070.549          4.128         90.199          1.020
   Mo       1070.541          4.128         90.199          1.020
   Mo       1059.772          4.121         89.744          1.015
   S         136.634          3.868         19.792          1.010
   S         133.849          3.854         19.589          0.999
   S         136.639          3.868         19.792          1.010
   S         136.633          3.868         19.792          1.010
   S         136.638          3.868         19.792          1.010
   S         136.638          3.868         19.792          1.010
   S         136.633          3.868         19.792          1.010
   S         136.639          3.868         19.792          1.010
   S         133.849          3.854         19.589          0.999
   S         136.634          3.868         19.792          1.010
  Edisp (eV):   -4.46769

[...]

 PIEZOELECTRIC TENSOR FIELD DIRECTION 1  (e Angst)
    -0.01164 -1.69764  0.00000           ( -0.00008 -0.03427  0.00000)
    -1.69764  0.01013  0.00000           ( -0.03427  0.00018  0.00000)
     0.00000  0.00000  0.00031           (  0.00000  0.00000  0.00009)

 PIEZOELECTRIC TENSOR FIELD DIRECTION 1  (C/m^2)
    -0.00042 -0.06196  0.00000
    -0.06196  0.00037  0.00000
     0.00000  0.00000  0.00001

      POSITION         DIRECTION 1           BORN EFFECTIVE CHARGE    (rigid.aug.   ionic)
     -0.00000      0.91916     12.70000    -0.98416 -0.00075 -0.00000 (  0.17437 14.00000)
      1.59203      1.83832     18.85000    -0.98245  0.00077  0.00000 (  0.17425 14.00000)
     -0.00000      0.91916     25.00000    -0.98854 -0.00077  0.00000 (  0.17424 14.00000)
      1.59203      1.83832     31.15000    -0.98245  0.00077 -0.00000 (  0.17425 14.00000)
     -0.00000      0.91916     37.30000    -0.98416 -0.00075  0.00000 (  0.17437 14.00000)
      1.59203      1.83832     14.26356     0.47776 -0.00025 -0.00020 (  0.66111  6.00000)
      1.59203      1.83832     11.13644     0.50097 -0.00027  0.00012 (  0.66041  6.00000)
     -0.00000      0.91916     20.41356     0.48485  0.00026 -0.00019 (  0.66112  6.00000)
     -0.00000      0.91916     17.28644     0.48521  0.00026  0.00020 (  0.66112  6.00000)
      1.59203      1.83832     26.56356     0.48473 -0.00025 -0.00019 (  0.66112  6.00000)
      1.59203      1.83832     23.43644     0.48473 -0.00025  0.00019 (  0.66112  6.00000)
     -0.00000      0.91916     32.71356     0.48521  0.00026 -0.00020 (  0.66112  6.00000)
     -0.00000      0.91916     29.58644     0.48485  0.00026  0.00019 (  0.66112  6.00000)
      1.59203      1.83832     38.86356     0.50097 -0.00027 -0.00012 (  0.66041  6.00000)
      1.59203      1.83832     35.73644     0.47776 -0.00025  0.00020 (  0.66111  6.00000)
    total drift (improves with k-points):  -0.05472 -0.00125  0.00000

[...]

The dynamic configuration has the point symmetry C_2v.

[...]

 Linear response to external field, progress :
  Direction:   3
  LATTYP: Found a hexagonal cell.
 ALAT       =     3.1840664647
 C/A-ratio  =    15.7031897903

[...]

The dynamic configuration has the point symmetry C_1h.
 The point group associated with its full space group is C_3v.

[...]

----------------------------------------- Iteration    3(  28)  ---------------------------------------

 Broyden mixing:
  rms(total) = 0.14846E-05    rms(broyden)= 0.14842E-05
  rms(prec ) = 0.14863E-05
  weight for this iteration     100.00

 eigenvalues of (default mixing * dielectric matrix)
  average eigenvalue GAMMA=   2.1012
  9.7862  7.8839  5.1103  3.8758  3.2573  3.2573  2.3550  2.2084  1.9952  1.7605
  1.2961  1.2961  1.1203  0.9293  0.9293  0.9588  0.8507  0.8250  0.8250  0.7064
  0.6904  0.5967  0.6202  0.6047  0.5395  0.3536

 Free energy of the ion-electron system (eV)
  -Hartree energ DENC   =        -0.94863170
  -V(xc)+E(xc)   XCENC  =         0.01434067
  PAW double counting   =         0.04414075       -0.04418714
  entropy T*S    EENTRO =         0.00000000
  eigenvalues    EBANDS =        -0.39764250
  free energy    TOTEN  =        -1.33197992 eV

  energy without entropy =       -1.33197992

------------------------ aborting loop because EDIFF is reached ----------------------------------------

 change of polarisation eV/A/(eV/A) component  3 :    -0.000    -0.000     2.606
 dielectric tensor                  component  3 :    -0.000    -0.000     2.074

[...]

  Hirshfeld charges:
            ion         q(e)
      1     Mo          0.374
      2     Mo          0.372
      3     Mo          0.372
      4     Mo          0.372
      5     Mo          0.374
      6     S          -0.186
      7     S          -0.187
      8     S          -0.186
      9     S          -0.186
     10     S          -0.186
     11     S          -0.186
     12     S          -0.186
     13     S          -0.186
     14     S          -0.187
     15     S          -0.186

  Tkatchenko/Scheffler method for vdW energy calculation

  Parameters of vdW forcefield:
            C6ts              R0ts           ALPHAts        RELVOL
            (au)              (au)            (au)
   Mo       1059.772          4.121         89.744          1.015
   Mo       1070.541          4.128         90.199          1.020
   Mo       1070.549          4.128         90.199          1.020
   Mo       1070.541          4.128         90.199          1.020
   Mo       1059.771          4.121         89.744          1.015
   S         136.634          3.868         19.792          1.010
   S         133.849          3.854         19.589          0.999
   S         136.639          3.868         19.792          1.010
   S         136.633          3.868         19.792          1.010
   S         136.638          3.868         19.792          1.010
   S         136.638          3.868         19.792          1.010
   S         136.633          3.868         19.792          1.010
   S         136.639          3.868         19.792          1.010
   S         133.849          3.854         19.589          0.999
   S         136.634          3.868         19.792          1.010
  Edisp (eV):   -4.46769

 PIEZOELECTRIC TENSOR FIELD DIRECTION 3  (e Angst)
    -0.00021 -0.00000  0.00000           (  0.00000  0.00000 -0.00000)
     0.00000 -0.00021  0.00000           (  0.00000  0.00000  0.00000)
    -0.00000  0.00000 -0.00024           ( -0.00000  0.00000  0.00000)

 PIEZOELECTRIC TENSOR FIELD DIRECTION 3  (C/m^2)
    -0.00001 -0.00000  0.00000
     0.00000 -0.00001  0.00000
    -0.00000  0.00000 -0.00001

      POSITION         DIRECTION 3           BORN EFFECTIVE CHARGE    (rigid.aug.   ionic)
     -0.00000      0.91916     12.70000    -0.00000 -0.00000-51.07867 (  0.17437 14.00000)
      1.59203      1.83832     18.85000     0.00000 -0.00000-12.91763 (  0.17425 14.00000)
     -0.00000      0.91916     25.00000    -0.00000  0.00000  0.23616 (  0.17424 14.00000)
      1.59203      1.83832     31.15000     0.00000  0.00000-12.91765 (  0.17425 14.00000)
     -0.00000      0.91916     37.30000    -0.00000  0.00000-51.07905 (  0.17437 14.00000)
      1.59203      1.83832     14.26356    -0.00000  0.00000 -3.42325 (  0.66111  6.00000)
      1.59203      1.83832     11.13644     0.00000 -0.00000 -0.24926 (  0.66041  6.00000)
     -0.00000      0.91916     20.41356     0.00000  0.00000 -0.37236 (  0.66112  6.00000)
     -0.00000      0.91916     17.28644     0.00000  0.00000  0.70872 (  0.66112  6.00000)
      1.59203      1.83832     26.56356     0.00000 -0.00000  0.35249 (  0.66112  6.00000)
      1.59203      1.83832     23.43644    -0.00000 -0.00000  0.35250 (  0.66112  6.00000)
     -0.00000      0.91916     32.71356     0.00000 -0.00000  0.70873 (  0.66112  6.00000)
     -0.00000      0.91916     29.58644    -0.00000 -0.00000 -0.37236 (  0.66112  6.00000)
      1.59203      1.83832     38.86356    -0.00000  0.00000 -0.24926 (  0.66041  6.00000)
      1.59203      1.83832     35.73644     0.00000 -0.00000 -3.42324 (  0.66111  6.00000)
    total drift (improves with k-points):   0.00000 -0.00000*********

[...]

 MACROSCOPIC STATIC DIELECTRIC TENSOR (including local field effects in DFT)
           9.851038    -0.000000     0.000000
          -0.000000     9.851038     0.000000
           0.000000     0.000000     2.074290

  LATTYP: Found a hexagonal cell.
 ALAT       =     3.1840664647
 C/A-ratio  =    15.7031897903

  Lattice vectors:

 A1 = (   3.1840664647,   0.0000000000,   0.0000000000)
 A2 = (  -1.5920332323,   2.7574824458,   0.0000000000)
 A3 = (   0.0000000000,   0.0000000000,  50.0000000000)

Analysis of symmetry for initial positions (statically):
 Subroutine PRICEL returns:
 Original cell was already a primitive cell.

[...]

The static configuration has the point symmetry C_2v.
 The point group associated with its full space group is D_3h.

Analysis of symmetry for dynamics (positions and initial velocities):
 Subroutine PRICEL returns:
 Original cell was already a primitive cell.

 Routine SETGRP: Setting up the symmetry group for a
 hexagonal supercell.

 Subroutine GETGRP returns: Found 12 space group operations
 (whereof  4 operations were pure point group operations)
 out of a pool of 24 trial point group operations.

The dynamic configuration has the point symmetry C_2v.
 The point group associated with its full space group is D_3h.

 Subroutine INISYM returns: Found 12 space group operations
 (whereof  4 operations are pure point group operations),
 and found     1 'primitive' translations

 MACROSCOPIC STATIC DIELECTRIC TENSOR (including local field effects in DFT)
           9.851038    -0.000000     0.000000
          -0.000000     9.851038     0.000000
           0.000000     0.000000     2.074290

 PIEZOELECTRIC TENSOR  for field in x, y, z        (e  Angst)
          XX          YY          ZZ          XY          YZ          ZX
  x    -0.01164     0.01013     0.00031    -1.69764     0.00000     0.00000
  y    -1.70933     1.71460    -0.00017     0.00000     0.00000     0.00000
  z    -0.00021    -0.00021    -0.00024     0.00000     0.00000     0.00000

 PIEZOELECTRIC TENSOR  for field in x, y, z        (C/m^2)
          XX          YY          ZZ          XY          YZ          ZX
  x    -0.00000     0.00000     0.00000    -0.06222     0.00000     0.00000
  y    -0.06222     0.06222     0.00000    -0.00000     0.00000     0.00000
  z     0.00000     0.00000     0.00000     0.00000     0.00000    -0.00000

 BORN EFFECTIVE CHARGES (in e, cummulative output)
 ion    1
    1    -0.98416    -0.00075    -0.00000
    2     0.00000    -0.98475     0.00001
    3    -0.00000    -0.00000   -51.07867
 ion    2
    1    -0.98245     0.00077     0.00000
    2    -0.00000    -0.98189    -0.00001
    3     0.00000    -0.00000   -12.91763
 ion    3
    1    -0.98854    -0.00077     0.00000
    2    -0.00000    -0.98915     0.00000
    3    -0.00000     0.00000     0.23616
 ion    4
    1    -0.98245     0.00077    -0.00000
    2    -0.00000    -0.98189     0.00001
    3     0.00000     0.00000   -12.91765
 ion    5
    1    -0.98416    -0.00075     0.00000
    2    -0.00000    -0.98475    -0.00001
    3    -0.00000     0.00000   -51.07905
 ion    6
    1     0.47776    -0.00025    -0.00020
    2    -0.00000     0.47816     0.00051
    3    -0.00000     0.00000    -3.42325
 ion    7
    1     0.50097    -0.00027     0.00012
    2     0.00000     0.50131    -0.00036
    3     0.00000    -0.00000    -0.24926
 ion    8
    1     0.48485     0.00026    -0.00019
    2    -0.00000     0.48443     0.00050
    3     0.00000     0.00000    -0.37236
 ion    9
    1     0.48521     0.00026     0.00020
    2    -0.00000     0.48478    -0.00049
    3     0.00000     0.00000     0.70872
 ion   10
    1     0.48473    -0.00025    -0.00019
    2    -0.00000     0.48515     0.00051
    3     0.00000    -0.00000     0.35249
 ion   11
    1     0.48473    -0.00025     0.00019
    2    -0.00000     0.48515    -0.00051
    3    -0.00000    -0.00000     0.35250
 ion   12
    1     0.48521     0.00026    -0.00020
    2    -0.00000     0.48478     0.00049
    3     0.00000    -0.00000     0.70873
 ion   13
    1     0.48485     0.00026     0.00019
    2    -0.00000     0.48443    -0.00050
    3    -0.00000    -0.00000    -0.37236
 ion   14
    1     0.50097    -0.00027    -0.00012
    2     0.00000     0.50131     0.00036
    3    -0.00000     0.00000    -0.24926
 ion   15
    1     0.47776    -0.00025     0.00020
    2    -0.00000     0.47816    -0.00051
    3     0.00000    -0.00000    -3.42324

 writing wavefunctions
 BZINTS: Fermi energy:  2.537630;130.000000 electrons
         Band energy:***********;  BLOECHL correction:  0.000000