 vasp.5.4.1 24Jun15 (build Apr 13 2016 13:07:19) complex

 executed on           IFC91_ompi date 2019.09.13  21:55:18

 INCAR:
 POTCAR:    PAW_PBE Mo_sv_GW 05Dec2013
 POTCAR:    PAW_PBE Se_GW 20Mar2012

 POTCAR:    PAW_PBE Mo_sv_GW 05Dec2013
   VRHFIN =Mo: 4s4p5s4d

   TITEL  = PAW_PBE Mo_sv_GW 05Dec2013
   POMASS =   95.940; ZVAL   =   14.000    mass and valenz
   ENMAX  =  344.914; ENMIN  =  258.686 eV

 POTCAR:    PAW_PBE Se_GW 20Mar2012
   VRHFIN =Se: s2p4

   TITEL  = PAW_PBE Se_GW 20Mar2012
   POMASS =   78.960; ZVAL   =    6.000    mass and valenz
   ENMAX  =  211.555; ENMIN  =  158.666 eV

  PAW_PBE Mo_sv_GW 05Dec2013            :
  PAW_PBE Se_GW 20Mar2012               :

 POSCAR: Mo Se
  positions in cartesian coordinates
 exchange correlation table for  LEXCH =        8
   RHO(1)=    0.500       N(1)  =     2000
   RHO(2)=  100.500       N(2)  =     4000

 ion  position               nearest neighbor table
   1  0.167  0.333  0.177-   7 2.54   8 2.54   7 2.54   8 2.54   7 2.54   8 2.54
   2  0.833  0.667  0.306-  10 2.54  10 2.54  10 2.54   9 2.54   9 2.54   9 2.54
   3  0.167  0.333  0.435-  11 2.54  12 2.54  11 2.54  12 2.54  11 2.54  12 2.54
   4  0.833  0.667  0.565-  13 2.54  14 2.54  13 2.54  14 2.54  13 2.54  14 2.54
   5  0.167  0.333  0.694-  15 2.54  15 2.54  15 2.54  16 2.54  16 2.54  16 2.54
   6  0.833  0.667  0.823-  17 2.54  18 2.54  17 2.54  18 2.54  17 2.54  18 2.54
   7  0.833  0.667  0.210-   1 2.54   1 2.54   1 2.54
   8  0.833  0.667  0.144-   1 2.54   1 2.54   1 2.54
   9  0.167  0.333  0.340-   2 2.54   2 2.54   2 2.54
  10  0.167  0.333  0.273-   2 2.54   2 2.54   2 2.54
  11  0.833  0.667  0.469-   3 2.54   3 2.54   3 2.54
  12  0.833  0.667  0.402-   3 2.54   3 2.54   3 2.54
  13  0.167  0.333  0.598-   4 2.54   4 2.54   4 2.54
  14  0.167  0.333  0.531-   4 2.54   4 2.54   4 2.54
  15  0.833  0.667  0.727-   5 2.54   5 2.54   5 2.54
  16  0.833  0.667  0.660-   5 2.54   5 2.54   5 2.54
  17  0.167  0.333  0.856-   6 2.54   6 2.54   6 2.54
  18  0.167  0.333  0.790-   6 2.54   6 2.54   6 2.54

  LATTYP: Found a hexagonal cell.
 ALAT       =     3.3197487879
 C/A-ratio  =    15.0613806029

  Lattice vectors:

 A1 = (   3.3197487879,   0.0000000000,   0.0000000000)
 A2 = (  -1.6598743939,   2.8749867845,   0.0000000000)
 A3 = (   0.0000000000,   0.0000000000,  50.0000000000)

Analysis of symmetry for initial positions (statically):
 Subroutine PRICEL returns:
 Original cell was already a primitive cell.

 Routine SETGRP: Setting up the symmetry group for a
 hexagonal supercell.

 Subroutine GETGRP returns: Found 12 space group operations
 (whereof  4 operations were pure point group operations)
 out of a pool of 24 trial point group operations.

The static configuration has the point symmetry C_2h.
 The point group associated with its full space group is D_3d.

Analysis of symmetry for dynamics (positions and initial velocities):
 Subroutine PRICEL returns:
 Original cell was already a primitive cell.

[...]

The dynamic configuration has the point symmetry C_2h.
 The point group associated with its full space group is D_3d.

 Subroutine INISYM returns: Found 12 space group operations
 (whereof  4 operations are pure point group operations),
 and found     1 'primitive' translations

 KPOINTS: KPOINTS created by Atomic Simulation Env

Automatic generation of k-mesh.
Space group operators:
 irot       det(A)        alpha          n_x          n_y          n_z        tau_x        tau_y        tau_z
    1     1.000000     0.000000     1.000000     0.000000     0.000000     0.000000     0.000000     0.000000
    2    -1.000000     0.000000     1.000000     0.000000     0.000000     0.000000     0.000000     0.000000
    3     1.000000   180.000000     1.000000     0.000000     0.000000     0.000000     0.000000     0.000000
    4    -1.000000   180.000000     1.000000     0.000000     0.000000     0.000000     0.000000     0.000000
    5     1.000000   120.000000     0.000000     0.000000    -1.000000     0.500000     0.500000     0.000000
    6    -1.000000   120.000000     0.000000     0.000000    -1.000000     0.500000     0.500000     0.000000
    7     1.000000   120.000000     0.000000     0.000000     1.000000     0.000000     0.500000     0.000000
    8    -1.000000   120.000000     0.000000     0.000000     1.000000     0.000000     0.500000     0.000000
    9     1.000000   180.000000     0.500000    -0.866025     0.000000     0.000000     0.500000     0.000000
   10    -1.000000   180.000000     0.500000    -0.866025     0.000000     0.000000     0.500000     0.000000
   11     1.000000   180.000000    -0.500000    -0.866025     0.000000     0.500000     0.500000     0.000000
   12    -1.000000   180.000000    -0.500000    -0.866025     0.000000     0.500000     0.500000     0.000000

 Subroutine IBZKPT returns following result:

 Found     37 irreducible k-points:

 Following reciprocal coordinates:
            Coordinates               Weight
  0.000000  0.000000  0.000000      1.000000
  0.055556  0.000000  0.000000      6.000000
  0.111111  0.000000  0.000000      6.000000
  0.166667  0.000000  0.000000      6.000000
  0.222222  0.000000  0.000000      6.000000
  0.277778  0.000000  0.000000      6.000000
  0.333333  0.000000  0.000000      6.000000
  0.388889  0.000000  0.000000      6.000000
  0.444444  0.000000  0.000000      6.000000
  0.500000  0.000000  0.000000      3.000000
  0.055556  0.055556  0.000000      6.000000
  0.111111  0.055556  0.000000     12.000000
  0.166667  0.055556  0.000000     12.000000
  0.222222  0.055556  0.000000     12.000000
  0.277778  0.055556  0.000000     12.000000
  0.333333  0.055556  0.000000     12.000000
  0.388889  0.055556  0.000000     12.000000
  0.444444  0.055556  0.000000     12.000000
  0.111111  0.111111  0.000000      6.000000
  0.166667  0.111111  0.000000     12.000000
  0.222222  0.111111  0.000000     12.000000
  0.277778  0.111111  0.000000     12.000000
  0.333333  0.111111  0.000000     12.000000
  0.388889  0.111111  0.000000     12.000000
  0.444444  0.111111  0.000000      6.000000
  0.166667  0.166667  0.000000      6.000000
  0.222222  0.166667  0.000000     12.000000
  0.277778  0.166667  0.000000     12.000000
  0.333333  0.166667  0.000000     12.000000
  0.388889  0.166667  0.000000     12.000000
  0.222222  0.222222  0.000000      6.000000
  0.277778  0.222222  0.000000     12.000000
  0.333333  0.222222  0.000000     12.000000
  0.388889  0.222222  0.000000      6.000000
  0.277778  0.277778  0.000000      6.000000
  0.333333  0.277778  0.000000     12.000000
  0.333333  0.333333  0.000000      2.000000

 Following cartesian coordinates:
            Coordinates               Weight
  0.000000  0.000000  0.000000      1.000000
  0.016735  0.009662  0.000000      6.000000
  0.033470  0.019324  0.000000      6.000000
  0.050205  0.028986  0.000000      6.000000
  0.066939  0.038648  0.000000      6.000000
  0.083674  0.048309  0.000000      6.000000
  0.100409  0.057971  0.000000      6.000000
  0.117144  0.067633  0.000000      6.000000
  0.133879  0.077295  0.000000      6.000000
  0.150614  0.086957  0.000000      3.000000
  0.016735  0.028986  0.000000      6.000000
  0.033470  0.038648  0.000000     12.000000
  0.050205  0.048309  0.000000     12.000000
  0.066939  0.057971  0.000000     12.000000
  0.083674  0.067633  0.000000     12.000000
  0.100409  0.077295  0.000000     12.000000
  0.117144  0.086957  0.000000     12.000000
  0.133879  0.096619  0.000000     12.000000
  0.033470  0.057971  0.000000      6.000000
  0.050205  0.067633  0.000000     12.000000
  0.066939  0.077295  0.000000     12.000000
  0.083674  0.086957  0.000000     12.000000
  0.100409  0.096619  0.000000     12.000000
  0.117144  0.106281  0.000000     12.000000
  0.133879  0.115943  0.000000      6.000000
  0.050205  0.086957  0.000000      6.000000
  0.066939  0.096619  0.000000     12.000000
  0.083674  0.106281  0.000000     12.000000
  0.100409  0.115943  0.000000     12.000000
  0.117144  0.125604  0.000000     12.000000
  0.066939  0.115943  0.000000      6.000000
  0.083674  0.125604  0.000000     12.000000
  0.100409  0.135266  0.000000     12.000000
  0.117144  0.144928  0.000000      6.000000
  0.083674  0.144928  0.000000      6.000000
  0.100409  0.154590  0.000000     12.000000
  0.100409  0.173914  0.000000      2.000000

 TETIRR: Found    169 inequivalent tetrahedra from     1944

 Subroutine IBZKPT_HF returns following result:

 Found    324 k-points in 1st BZ
 the following    324 k-points will be used (e.g. in the exchange kernel)
 Following reciprocal coordinates:   # in IRBZ
  0.000000  0.000000  0.000000    0.00308642   1 t-inv F
  0.055556  0.000000  0.000000    0.00308642   2 t-inv F
  0.111111  0.000000  0.000000    0.00308642   3 t-inv F
  0.166667  0.000000  0.000000    0.00308642   4 t-inv F
  0.222222  0.000000  0.000000    0.00308642   5 t-inv F
  0.277778  0.000000  0.000000    0.00308642   6 t-inv F
  0.333333  0.000000  0.000000    0.00308642   7 t-inv F
  0.388889  0.000000  0.000000    0.00308642   8 t-inv F
  0.444444  0.000000  0.000000    0.00308642   9 t-inv F
  0.500000  0.000000  0.000000    0.00308642  10 t-inv F
  0.055556  0.055556  0.000000    0.00308642  11 t-inv F
  0.111111  0.055556  0.000000    0.00308642  12 t-inv F
  0.166667  0.055556  0.000000    0.00308642  13 t-inv F
  0.222222  0.055556  0.000000    0.00308642  14 t-inv F
  0.277778  0.055556  0.000000    0.00308642  15 t-inv F
  0.333333  0.055556  0.000000    0.00308642  16 t-inv F
  0.388889  0.055556  0.000000    0.00308642  17 t-inv F
  0.444444  0.055556  0.000000    0.00308642  18 t-inv F
  0.111111  0.111111  0.000000    0.00308642  19 t-inv F
  0.166667  0.111111  0.000000    0.00308642  20 t-inv F
  0.222222  0.111111  0.000000    0.00308642  21 t-inv F
  0.277778  0.111111  0.000000    0.00308642  22 t-inv F
  0.333333  0.111111  0.000000    0.00308642  23 t-inv F
  0.388889  0.111111  0.000000    0.00308642  24 t-inv F
  0.444444  0.111111  0.000000    0.00308642  25 t-inv F
  0.166667  0.166667  0.000000    0.00308642  26 t-inv F
  0.222222  0.166667  0.000000    0.00308642  27 t-inv F
  0.277778  0.166667  0.000000    0.00308642  28 t-inv F
  0.333333  0.166667  0.000000    0.00308642  29 t-inv F
  0.388889  0.166667  0.000000    0.00308642  30 t-inv F
  0.222222  0.222222  0.000000    0.00308642  31 t-inv F
  0.277778  0.222222  0.000000    0.00308642  32 t-inv F
  0.333333  0.222222  0.000000    0.00308642  33 t-inv F
  0.388889  0.222222  0.000000    0.00308642  34 t-inv F
  0.277778  0.277778  0.000000    0.00308642  35 t-inv F
  0.333333  0.277778  0.000000    0.00308642  36 t-inv F
  0.333333  0.333333  0.000000    0.00308642  37 t-inv F
 -0.055556 -0.000000 -0.000000    0.00308642   2 t-inv F
  0.055556 -0.055556 -0.000000    0.00308642   2 t-inv F
 -0.055556  0.055556  0.000000    0.00308642   2 t-inv F
  0.000000 -0.055556  0.000000    0.00308642   2 t-inv F
 -0.000000  0.055556 -0.000000    0.00308642   2 t-inv F
 -0.111111 -0.000000 -0.000000    0.00308642   3 t-inv F
  0.111111 -0.111111 -0.000000    0.00308642   3 t-inv F
[...]
     -0.00000      0.95833     39.48097        -0.000000     -0.000000      0.079014
    total drift:                                0.000000      0.000000      0.000000

  FREE ENERGIE OF THE ION-ELECTRON SYSTEM (eV)
  free  energy   TOTEN  =      -130.00922709 eV

  energy  without entropy=     -130.00922709  energy(sigma->0) =     -130.00922709

 Linear response reoptimize wavefunctions
 Linear response G [H, r] |phi>, progress :
  Direction:   1

[...]

  free energy    TOTEN  =      -623.86187690 eV

[...]

 Linear response G [H, r] |phi>, progress :
  Direction:   2

[...]

 Linear response G [H, r] |phi>, progress :
  Direction:   3

[...]

  free energy    TOTEN  =      -695.13642755 eV

[...]

 Linear response to external field (no local field effect), progress :
  Direction:   1
  LATTYP: Found a hexagonal cell.
 ALAT       =     3.3197487879
 C/A-ratio  =    15.0613806029

[...]

The dynamic configuration has the point symmetry C_2 .

[...]

 Free energy of the ion-electron system (eV)
  -Hartree energ DENC   =         0.00000000
  -V(xc)+E(xc)   XCENC  =         0.00000000
  PAW double counting   =         0.00000000        0.00000000
  entropy T*S    EENTRO =         0.00000000
  eigenvalues    EBANDS =       -13.02017658
  free energy    TOTEN  =       -13.02017658 eV

  energy without entropy =      -13.02017658

[...]

 change of polarisation eV/A/(eV/A) component  1 :    34.183    -3.229    -0.114
 dielectric tensor                  component  1 :    13.962    -1.224    -0.043

[...]

The dynamic configuration has the point symmetry C_1h.

[...]

 Linear response to external field (no local field effect), progress :
  Direction:   3
  LATTYP: Found a hexagonal cell.
 ALAT       =     3.3197487879
 C/A-ratio  =    15.0613806029

[...]

The dynamic configuration has the point symmetry C_1h.
 The point group associated with its full space group is C_3v.

[...]

 HEAD OF MICROSCOPIC STATIC DIELECTRIC TENSOR (INDEPENDENT PARTICLE, excluding Hartree and local field effects)
          14.012806     0.000000     0.000000
           0.000000    14.012806    -0.000000
           0.000000     0.000000     8.885776

 Linear response to external field, progress :
  Direction:   1
  LATTYP: Found a hexagonal cell.
 ALAT       =     3.3197487879
 C/A-ratio  =    15.0613806029

[...]

The dynamic configuration has the point symmetry C_2 .

[...]

  Parameters of vdW forcefield:
            C6ts              R0ts           ALPHAts        RELVOL
            (au)              (au)            (au)
   Mo       1086.650          4.138         90.875          1.028
   Mo       1094.555          4.143         91.205          1.031
   Mo       1094.573          4.143         91.205          1.032
   Mo       1094.573          4.143         91.205          1.032
   Mo       1094.555          4.143         91.205          1.031
   Mo       1086.650          4.138         90.875          1.028
   Se        215.628          4.062         25.333          1.013
   Se        211.150          4.048         25.068          1.003
   Se        215.638          4.062         25.333          1.013
   Se        215.624          4.062         25.332          1.013
   Se        215.639          4.062         25.333          1.013
   Se        215.639          4.062         25.333          1.013
   Se        215.639          4.062         25.333          1.013
   Se        215.639          4.062         25.333          1.013
   Se        215.624          4.062         25.332          1.013
   Se        215.638          4.062         25.333          1.013
   Se        211.150          4.048         25.068          1.003
   Se        215.628          4.062         25.333          1.013
  Edisp (eV):   -5.59466

[...]

 PIEZOELECTRIC TENSOR FIELD DIRECTION 1  (e Angst)
    -0.01026  0.00000  0.00000           ( -0.00182  0.00000  0.00000)
     0.00000  0.01308  0.00030           (  0.00000  0.00102  0.00001)
     0.00000  0.00029 -0.00246           (  0.00000  0.00001 -0.00041)

 PIEZOELECTRIC TENSOR FIELD DIRECTION 1  (C/m^2)
    -0.00034  0.00000  0.00000
     0.00000  0.00044  0.00001
     0.00000  0.00001 -0.00008

      POSITION         DIRECTION 1           BORN EFFECTIVE CHARGE    (rigid.aug.   ionic)
     -0.00000      0.95833      8.85000    -1.77952 -0.00002  0.00003 (  0.16871 14.00000)
      1.65987      1.91666     15.31000    -1.76852 -0.00001  0.00000 (  0.16858 14.00000)
     -0.00000      0.95833     21.77000    -1.76788  0.00001  0.00000 (  0.16857 14.00000)
      1.65987      1.91666     28.23000    -1.76788 -0.00001 -0.00000 (  0.16857 14.00000)
     -0.00000      0.95833     34.69000    -1.76852  0.00001 -0.00000 (  0.16858 14.00000)
      1.65987      1.91666     41.15000    -1.77952  0.00002 -0.00003 (  0.16871 14.00000)
      1.65987      1.91666     10.51903     0.86438 -0.00168  0.00018 (  1.12429  6.00000)
      1.65987      1.91666      7.18097     0.87981 -0.00160 -0.00009 (  1.12264  6.00000)
     -0.00000      0.95833     16.97903     0.86658  0.00171  0.00019 (  1.12432  6.00000)
     -0.00000      0.95833     13.64097     0.86729  0.00171 -0.00019 (  1.12431  6.00000)
      1.65987      1.91666     23.43903     0.86656 -0.00171  0.00019 (  1.12432  6.00000)
      1.65987      1.91666     20.10097     0.86656 -0.00171 -0.00019 (  1.12432  6.00000)
     -0.00000      0.95833     29.89903     0.86656  0.00171  0.00019 (  1.12432  6.00000)
     -0.00000      0.95833     26.56097     0.86656  0.00171 -0.00019 (  1.12432  6.00000)
      1.65987      1.91666     36.35903     0.86729 -0.00171  0.00019 (  1.12431  6.00000)
      1.65987      1.91666     33.02097     0.86658 -0.00171 -0.00019 (  1.12432  6.00000)
     -0.00000      0.95833     42.81903     0.87981  0.00160  0.00009 (  1.12264  6.00000)
     -0.00000      0.95833     39.48097     0.86438  0.00168 -0.00018 (  1.12429  6.00000)
    total drift (improves with k-points):  -0.20950  0.00000  0.00000

[...]

The dynamic configuration has the point symmetry C_1h.

[...]

 Linear response to external field, progress :
  Direction:   3
  LATTYP: Found a hexagonal cell.
 ALAT       =     3.3197487879
 C/A-ratio  =    15.0613806029

[...]

The dynamic configuration has the point symmetry C_1h.
 The point group associated with its full space group is C_3v.

[...]

----------------------------------------- Iteration    3(  23)  ---------------------------------------

 Broyden mixing:
  rms(total) = 0.60737E-06    rms(broyden)= 0.60675E-06
  rms(prec ) = 0.62816E-06
  weight for this iteration     100.00

 eigenvalues of (default mixing * dielectric matrix)
  average eigenvalue GAMMA=   1.9407
  8.4362  4.8504  3.8666  3.1711  2.7420  2.4548  1.9579  1.9579  1.4943  1.1366
  1.1366  0.9628  0.9628  0.9581  0.9581  0.7459  0.6640  0.5468  0.5533  0.5505
  0.6471

 Free energy of the ion-electron system (eV)
  -Hartree energ DENC   =        -1.81624692
  -V(xc)+E(xc)   XCENC  =         0.04612550
  PAW double counting   =         0.14467363       -0.14329431
  entropy T*S    EENTRO =         0.00000000
  eigenvalues    EBANDS =        -1.06861622
  free energy    TOTEN  =        -2.83735831 eV

  energy without entropy =       -2.83735831

------------------------ aborting loop because EDIFF is reached ----------------------------------------

 change of polarisation eV/A/(eV/A) component  3 :    -0.018     0.003     5.530
 dielectric tensor                  component  3 :    -0.007     0.001     3.097

[...]

  Hirshfeld charges:
            ion         q(e)
      1     Mo          0.310
      2     Mo          0.308
      3     Mo          0.308
      4     Mo          0.308
      5     Mo          0.308
      6     Mo          0.310
      7     Se         -0.154
      8     Se         -0.155
      9     Se         -0.154
     10     Se         -0.154
     11     Se         -0.154
     12     Se         -0.154
     13     Se         -0.154
     14     Se         -0.154
     15     Se         -0.154
     16     Se         -0.154
     17     Se         -0.155
     18     Se         -0.154

  Tkatchenko/Scheffler method for vdW energy calculation

  Parameters of vdW forcefield:
            C6ts              R0ts           ALPHAts        RELVOL
            (au)              (au)            (au)
   Mo       1086.650          4.138         90.875          1.028
   Mo       1094.555          4.143         91.205          1.031
   Mo       1094.573          4.143         91.205          1.032
   Mo       1094.573          4.143         91.205          1.032
   Mo       1094.555          4.143         91.205          1.031
   Mo       1086.650          4.138         90.875          1.028
   Se        215.628          4.062         25.333          1.013
   Se        211.150          4.048         25.068          1.003
   Se        215.638          4.062         25.333          1.013
   Se        215.624          4.062         25.332          1.013
   Se        215.639          4.062         25.333          1.013
   Se        215.639          4.062         25.333          1.013
   Se        215.638          4.062         25.333          1.013
   Se        215.639          4.062         25.333          1.013
   Se        215.624          4.062         25.332          1.013
   Se        215.638          4.062         25.333          1.013
   Se        211.150          4.048         25.068          1.003
   Se        215.628          4.062         25.333          1.013
  Edisp (eV):   -5.59466

 PIEZOELECTRIC TENSOR FIELD DIRECTION 3  (e Angst)
     0.26765 -0.00000  0.00000           ( -0.00000 -0.00000  0.00000)
     0.00000  0.26765  0.00000           (  0.00000 -0.00000  0.00000)
    -0.00000 -0.00000 -0.41022           (  0.00000  0.00000  0.00001)

 PIEZOELECTRIC TENSOR FIELD DIRECTION 3  (C/m^2)
     0.00899 -0.00000  0.00000
     0.00000  0.00899  0.00000
    -0.00000 -0.00000 -0.01377

      POSITION         DIRECTION 3           BORN EFFECTIVE CHARGE    (rigid.aug.   ionic)
     -0.00000      0.95833      8.85000     0.00000 -0.00000-72.50292 (  0.16871 14.00000)
      1.65987      1.91666     15.31000     0.00000  0.00000-26.62953 (  0.16858 14.00000)
     -0.00000      0.95833     21.77000    -0.00000  0.00000 -2.65123 (  0.16857 14.00000)
      1.65987      1.91666     28.23000     0.00000  0.00000 -2.65033 (  0.16857 14.00000)
     -0.00000      0.95833     34.69000     0.00000  0.00000-26.52428 (  0.16858 14.00000)
      1.65987      1.91666     41.15000     0.00000 -0.00000-72.54687 (  0.16871 14.00000)
      1.65987      1.91666     10.51903    -0.00000 -0.00000 -2.11574 (  1.12429  6.00000)
      1.65987      1.91666      7.18097    -0.00000 -0.00000 -3.35839 (  1.12264  6.00000)
     -0.00000      0.95833     16.97903    -0.00000  0.00000 -0.78704 (  1.12432  6.00000)
     -0.00000      0.95833     13.64097     0.00000  0.00000 -1.23962 (  1.12431  6.00000)
      1.65987      1.91666     23.43903    -0.00000  0.00000  0.83492 (  1.12432  6.00000)
      1.65987      1.91666     20.10097    -0.00000 -0.00000  1.10893 (  1.12432  6.00000)
     -0.00000      0.95833     29.89903    -0.00000  0.00000  0.88323 (  1.12432  6.00000)
     -0.00000      0.95833     26.56097    -0.00000 -0.00000  0.75647 (  1.12432  6.00000)
      1.65987      1.91666     36.35903     0.00000  0.00000 -0.91017 (  1.12431  6.00000)
      1.65987      1.91666     33.02097    -0.00000  0.00000 -0.55281 (  1.12432  6.00000)
     -0.00000      0.95833     42.81903    -0.00000  0.00000 -3.42656 (  1.12264  6.00000)
     -0.00000      0.95833     39.48097    -0.00000  0.00000 -2.43271 (  1.12429  6.00000)
    total drift (improves with k-points):  -0.00000  0.00000*********

[...]

 MACROSCOPIC STATIC DIELECTRIC TENSOR (including local field effects in DFT)
          13.344315    -0.000000     0.000000
           0.000000    13.344315     0.000000
           0.000000     0.000000     3.096811

  LATTYP: Found a hexagonal cell.
 ALAT       =     3.3197487879
 C/A-ratio  =    15.0613806029

  Lattice vectors:

 A1 = (   3.3197487879,   0.0000000000,   0.0000000000)
 A2 = (  -1.6598743939,   2.8749867845,   0.0000000000)
 A3 = (   0.0000000000,   0.0000000000,  50.0000000000)

Analysis of symmetry for initial positions (statically):
 Subroutine PRICEL returns:
 Original cell was already a primitive cell.

[...]

The static configuration has the point symmetry C_2h.
 The point group associated with its full space group is D_3d.

Analysis of symmetry for dynamics (positions and initial velocities):
 Subroutine PRICEL returns:
 Original cell was already a primitive cell.

 Routine SETGRP: Setting up the symmetry group for a
 hexagonal supercell.

 Subroutine GETGRP returns: Found 12 space group operations
 (whereof  4 operations were pure point group operations)
 out of a pool of 24 trial point group operations.

The dynamic configuration has the point symmetry C_2h.
 The point group associated with its full space group is D_3d.

 Subroutine INISYM returns: Found 12 space group operations
 (whereof  4 operations are pure point group operations),
 and found     1 'primitive' translations

 MACROSCOPIC STATIC DIELECTRIC TENSOR (including local field effects in DFT)
          13.344315    -0.000000     0.000000
           0.000000    13.344315     0.000000
           0.000000     0.000000     3.096811

 PIEZOELECTRIC TENSOR  for field in x, y, z        (e  Angst)
          XX          YY          ZZ          XY          YZ          ZX
  x    -0.01026     0.01308    -0.00246     0.00000     0.00029     0.00000
  y    -0.01506     0.02552    -0.00200     0.00000     0.00026     0.00000
  z     0.26765     0.26765    -0.41022     0.00000    -0.00000     0.00000

 PIEZOELECTRIC TENSOR  for field in x, y, z        (C/m^2)
          XX          YY          ZZ          XY          YZ          ZX
  x     0.00000     0.00000     0.00000     0.00000     0.00000     0.00000
  y     0.00000     0.00000     0.00000     0.00000     0.00000     0.00000
  z     0.00000     0.00000     0.00000     0.00000     0.00000     0.00000

 BORN EFFECTIVE CHARGES (in e, cummulative output)
 ion    1
    1    -1.77952    -0.00002     0.00003
    2     0.00000    -1.78003    -0.00006
    3     0.00000    -0.00000   -72.50292
 ion    2
    1    -1.76852    -0.00001     0.00000
    2    -0.00000    -1.76795    -0.00000
    3     0.00000     0.00000   -26.62953
 ion    3
    1    -1.76788     0.00001     0.00000
    2    -0.00000    -1.76847     0.00000
    3    -0.00000     0.00000    -2.65123
 ion    4
    1    -1.76788    -0.00001    -0.00000
    2     0.00000    -1.76730    -0.00000
    3     0.00000     0.00000    -2.65033
 ion    5
    1    -1.76852     0.00001    -0.00000
    2     0.00000    -1.76910     0.00000
    3     0.00000     0.00000   -26.52428
 ion    6
    1    -1.77952     0.00002    -0.00003
    2    -0.00000    -1.77901     0.00006
    3     0.00000    -0.00000   -72.54687
 ion    7
    1     0.86438    -0.00168     0.00018
    2    -0.00000     0.86475     0.00115
    3    -0.00000    -0.00000    -2.11574
 ion    8
    1     0.87981    -0.00160    -0.00009
    2     0.00000     0.88012    -0.00066
    3    -0.00000    -0.00000    -3.35839
 ion    9
    1     0.86658     0.00171     0.00019
    2    -0.00000     0.86620     0.00109
    3    -0.00000     0.00000    -0.78704
 ion   10
    1     0.86729     0.00171    -0.00019
    2     0.00000     0.86691    -0.00108
    3     0.00000     0.00000    -1.23962
 ion   11
    1     0.86656    -0.00171     0.00019
    2     0.00000     0.86695     0.00111
    3    -0.00000     0.00000     0.83492
 ion   12
    1     0.86656    -0.00171    -0.00019
    2     0.00000     0.86695    -0.00111
    3    -0.00000    -0.00000     1.10893
 ion   13
    1     0.86656     0.00171     0.00019
    2    -0.00000     0.86617     0.00110
    3    -0.00000     0.00000     0.88323
 ion   14
    1     0.86656     0.00171    -0.00019
    2    -0.00000     0.86618    -0.00110
    3    -0.00000    -0.00000     0.75647
 ion   15
    1     0.86729    -0.00171     0.00019
    2    -0.00000     0.86767     0.00108
    3     0.00000     0.00000    -0.91017
 ion   16
    1     0.86658    -0.00171    -0.00019
    2     0.00000     0.86697    -0.00109
    3    -0.00000     0.00000    -0.55281
 ion   17
    1     0.87981     0.00160     0.00009
    2     0.00000     0.87949     0.00065
    3    -0.00000     0.00000    -3.42656
 ion   18
    1     0.86438     0.00168    -0.00018
    2    -0.00000     0.86401    -0.00113
    3    -0.00000     0.00000    -2.43271

 writing wavefunctions
 BZINTS: Fermi energy:  3.794759;156.000000 electrons
         Band energy:***********;  BLOECHL correction:  0.000000