 vasp.5.4.1 24Jun15 (build Apr 13 2016 13:07:19) complex

 executed on           IFC91_ompi date 2019.09.14  00:58:09

 INCAR:
 POTCAR:    PAW_PBE Mo_sv_GW 05Dec2013
 POTCAR:    PAW_PBE Te_GW 22Mar2012

 POTCAR:    PAW_PBE Mo_sv_GW 05Dec2013
   VRHFIN =Mo: 4s4p5s4d

   TITEL  = PAW_PBE Mo_sv_GW 05Dec2013
   POMASS =   95.940; ZVAL   =   14.000    mass and valenz
   ENMAX  =  344.914; ENMIN  =  258.686 eV

 POTCAR:    PAW_PBE Te_GW 22Mar2012
   VRHFIN =Te: s2p4

   TITEL  = PAW_PBE Te_GW 22Mar2012
   POMASS =  127.600; ZVAL   =    6.000    mass and valenz
   ENMAX  =  174.982; ENMIN  =  131.236 eV

  PAW_PBE Mo_sv_GW 05Dec2013            :
  PAW_PBE Te_GW 22Mar2012               :

 POSCAR: Mo Te
  positions in cartesian coordinates
 exchange correlation table for  LEXCH =        8
   RHO(1)=    0.500       N(1)  =     2000
   RHO(2)=  100.500       N(2)  =     4000

 ion  position               nearest neighbor table
   1  0.167  0.333  0.430-   3 2.73   4 2.73   3 2.73   4 2.73   3 2.73   4 2.73
   2  0.833  0.667  0.570-   5 2.73   6 2.73   5 2.73   6 2.73   5 2.73   6 2.73
   3  0.833  0.667  0.466-   1 2.73   1 2.73   1 2.73   4 3.61
   4  0.833  0.667  0.394-   1 2.73   1 2.73   1 2.73   3 3.61
   5  0.167  0.333  0.606-   2 2.73   2 2.73   2 2.73   6 3.61
   6  0.167  0.333  0.534-   2 2.73   2 2.73   2 2.73   5 3.61

  LATTYP: Found a hexagonal cell.
 ALAT       =     3.5473923118
 C/A-ratio  =    14.0948605637

  Lattice vectors:

 A1 = (   3.5473923118,   0.0000000000,   0.0000000000)
 A2 = (  -1.7736961559,   3.0721318592,   0.0000000000)
 A3 = (   0.0000000000,   0.0000000000,  50.0000000000)

Analysis of symmetry for initial positions (statically):
 Subroutine PRICEL returns:
 Original cell was already a primitive cell.

 Routine SETGRP: Setting up the symmetry group for a
 hexagonal supercell.

 Subroutine GETGRP returns: Found 12 space group operations
 (whereof  4 operations were pure point group operations)
 out of a pool of 24 trial point group operations.

The static configuration has the point symmetry C_2h.
 The point group associated with its full space group is D_3d.

Analysis of symmetry for dynamics (positions and initial velocities):
 Subroutine PRICEL returns:
 Original cell was already a primitive cell.

[...]

The dynamic configuration has the point symmetry C_2h.
 The point group associated with its full space group is D_3d.

 Subroutine INISYM returns: Found 12 space group operations
 (whereof  4 operations are pure point group operations),
 and found     1 'primitive' translations

 KPOINTS: KPOINTS created by Atomic Simulation Env

Automatic generation of k-mesh.
Space group operators:
 irot       det(A)        alpha          n_x          n_y          n_z        tau_x        tau_y        tau_z
    1     1.000000     0.000001     1.000000     0.000000     0.000000     0.000000     0.000000     0.000000
    2    -1.000000     0.000001     1.000000     0.000000     0.000000     0.000000     0.000000     0.000000
    3     1.000000   180.000000     1.000000     0.000000     0.000000     0.000000     0.000000     0.000000
    4    -1.000000   180.000000     1.000000     0.000000     0.000000     0.000000     0.000000     0.000000
    5     1.000000   120.000000     0.000000     0.000000    -1.000000     0.500000     0.500000     0.000000
    6    -1.000000   120.000000     0.000000     0.000000    -1.000000     0.500000     0.500000     0.000000
    7     1.000000   120.000000     0.000000     0.000000     1.000000     0.000000     0.500000     0.000000
    8    -1.000000   120.000000     0.000000     0.000000     1.000000     0.000000     0.500000     0.000000
    9     1.000000   180.000000     0.500000    -0.866025     0.000000     0.000000     0.500000     0.000000
   10    -1.000000   180.000000     0.500000    -0.866025     0.000000     0.000000     0.500000     0.000000
   11     1.000000   180.000000    -0.500000    -0.866025     0.000000     0.500000     0.500000     0.000000
   12    -1.000000   180.000000    -0.500000    -0.866025     0.000000     0.500000     0.500000     0.000000

 Subroutine IBZKPT returns following result:

 Found     37 irreducible k-points:

 Following reciprocal coordinates:
            Coordinates               Weight
  0.000000  0.000000  0.000000      1.000000
  0.055556  0.000000  0.000000      6.000000
  0.111111  0.000000  0.000000      6.000000
  0.166667  0.000000  0.000000      6.000000
  0.222222  0.000000  0.000000      6.000000
  0.277778  0.000000  0.000000      6.000000
  0.333333  0.000000  0.000000      6.000000
  0.388889  0.000000  0.000000      6.000000
  0.444444  0.000000  0.000000      6.000000
  0.500000  0.000000  0.000000      3.000000
  0.055556  0.055556  0.000000      6.000000
  0.111111  0.055556  0.000000     12.000000
  0.166667  0.055556  0.000000     12.000000
  0.222222  0.055556  0.000000     12.000000
  0.277778  0.055556  0.000000     12.000000
  0.333333  0.055556  0.000000     12.000000
  0.388889  0.055556  0.000000     12.000000
  0.444444  0.055556  0.000000     12.000000
  0.111111  0.111111  0.000000      6.000000
  0.166667  0.111111  0.000000     12.000000
  0.222222  0.111111  0.000000     12.000000
  0.277778  0.111111  0.000000     12.000000
  0.333333  0.111111  0.000000     12.000000
  0.388889  0.111111  0.000000     12.000000
  0.444444  0.111111  0.000000      6.000000
  0.166667  0.166667  0.000000      6.000000
  0.222222  0.166667  0.000000     12.000000
  0.277778  0.166667  0.000000     12.000000
  0.333333  0.166667  0.000000     12.000000
  0.388889  0.166667  0.000000     12.000000
  0.222222  0.222222  0.000000      6.000000
  0.277778  0.222222  0.000000     12.000000
  0.333333  0.222222  0.000000     12.000000
  0.388889  0.222222  0.000000      6.000000
  0.277778  0.277778  0.000000      6.000000
  0.333333  0.277778  0.000000     12.000000
  0.333333  0.333333  0.000000      2.000000

 Following cartesian coordinates:
            Coordinates               Weight
  0.000000  0.000000  0.000000      1.000000
  0.015661  0.009042  0.000000      6.000000
  0.031322  0.018084  0.000000      6.000000
  0.046983  0.027126  0.000000      6.000000
  0.062644  0.036167  0.000000      6.000000
  0.078305  0.045209  0.000000      6.000000
  0.093966  0.054251  0.000000      6.000000
  0.109627  0.063293  0.000000      6.000000
  0.125288  0.072335  0.000000      6.000000
  0.140949  0.081377  0.000000      3.000000
  0.015661  0.027126  0.000000      6.000000
  0.031322  0.036167  0.000000     12.000000
  0.046983  0.045209  0.000000     12.000000
  0.062644  0.054251  0.000000     12.000000
  0.078305  0.063293  0.000000     12.000000
  0.093966  0.072335  0.000000     12.000000
  0.109627  0.081377  0.000000     12.000000
  0.125288  0.090419  0.000000     12.000000
  0.031322  0.054251  0.000000      6.000000
  0.046983  0.063293  0.000000     12.000000
  0.062644  0.072335  0.000000     12.000000
  0.078305  0.081377  0.000000     12.000000
  0.093966  0.090419  0.000000     12.000000
  0.109627  0.099460  0.000000     12.000000
  0.125288  0.108502  0.000000      6.000000
  0.046983  0.081377  0.000000      6.000000
  0.062644  0.090419  0.000000     12.000000
  0.078305  0.099460  0.000000     12.000000
  0.093966  0.108502  0.000000     12.000000
  0.109627  0.117544  0.000000     12.000000
  0.062644  0.108502  0.000000      6.000000
  0.078305  0.117544  0.000000     12.000000
  0.093966  0.126586  0.000000     12.000000
  0.109627  0.135628  0.000000      6.000000
  0.078305  0.135628  0.000000      6.000000
  0.093966  0.144670  0.000000     12.000000
  0.093966  0.162753  0.000000      2.000000

 TETIRR: Found    169 inequivalent tetrahedra from     1944

 Subroutine IBZKPT_HF returns following result:

 Found    324 k-points in 1st BZ
 the following    324 k-points will be used (e.g. in the exchange kernel)
 Following reciprocal coordinates:   # in IRBZ
  0.000000  0.000000  0.000000    0.00308642   1 t-inv F
  0.055556  0.000000  0.000000    0.00308642   2 t-inv F
  0.111111  0.000000  0.000000    0.00308642   3 t-inv F
  0.166667  0.000000  0.000000    0.00308642   4 t-inv F
  0.222222  0.000000  0.000000    0.00308642   5 t-inv F
  0.277778  0.000000  0.000000    0.00308642   6 t-inv F
  0.333333  0.000000  0.000000    0.00308642   7 t-inv F
  0.388889  0.000000  0.000000    0.00308642   8 t-inv F
  0.444444  0.000000  0.000000    0.00308642   9 t-inv F
  0.500000  0.000000  0.000000    0.00308642  10 t-inv F
  0.055556  0.055556  0.000000    0.00308642  11 t-inv F
  0.111111  0.055556  0.000000    0.00308642  12 t-inv F
  0.166667  0.055556  0.000000    0.00308642  13 t-inv F
  0.222222  0.055556  0.000000    0.00308642  14 t-inv F
  0.277778  0.055556  0.000000    0.00308642  15 t-inv F
  0.333333  0.055556  0.000000    0.00308642  16 t-inv F
  0.388889  0.055556  0.000000    0.00308642  17 t-inv F
  0.444444  0.055556  0.000000    0.00308642  18 t-inv F
  0.111111  0.111111  0.000000    0.00308642  19 t-inv F
  0.166667  0.111111  0.000000    0.00308642  20 t-inv F
  0.222222  0.111111  0.000000    0.00308642  21 t-inv F
  0.277778  0.111111  0.000000    0.00308642  22 t-inv F
  0.333333  0.111111  0.000000    0.00308642  23 t-inv F
  0.388889  0.111111  0.000000    0.00308642  24 t-inv F
  0.444444  0.111111  0.000000    0.00308642  25 t-inv F
  0.166667  0.166667  0.000000    0.00308642  26 t-inv F
  0.222222  0.166667  0.000000    0.00308642  27 t-inv F
  0.277778  0.166667  0.000000    0.00308642  28 t-inv F
  0.333333  0.166667  0.000000    0.00308642  29 t-inv F
  0.388889  0.166667  0.000000    0.00308642  30 t-inv F
  0.222222  0.222222  0.000000    0.00308642  31 t-inv F
  0.277778  0.222222  0.000000    0.00308642  32 t-inv F
  0.333333  0.222222  0.000000    0.00308642  33 t-inv F
  0.388889  0.222222  0.000000    0.00308642  34 t-inv F
  0.277778  0.277778  0.000000    0.00308642  35 t-inv F
  0.333333  0.277778  0.000000    0.00308642  36 t-inv F
  0.333333  0.333333  0.000000    0.00308642  37 t-inv F
 -0.055556 -0.000000 -0.000000    0.00308642   2 t-inv F
  0.055556 -0.055556 -0.000000    0.00308642   2 t-inv F
 -0.055556  0.055556  0.000000    0.00308642   2 t-inv F
  0.000000 -0.055556  0.000000    0.00308642   2 t-inv F
 -0.000000  0.055556 -0.000000    0.00308642   2 t-inv F
 -0.111111 -0.000000 -0.000000    0.00308642   3 t-inv F
  0.111111 -0.111111 -0.000000    0.00308642   3 t-inv F
 -0.111111  0.111111  0.000000    0.00308642   3 t-inv F
  0.000000 -0.111111  0.000000    0.00308642   3 t-inv F
 -0.000000  0.111111 -0.000000    0.00308642   3 t-inv F
 -0.166667 -0.000000 -0.000000    0.00308642   4 t-inv F
  0.166667 -0.166667 -0.000000    0.00308642   4 t-inv F
 -0.166667  0.166667  0.000000    0.00308642   4 t-inv F
  0.000000 -0.166667  0.000000    0.00308642   4 t-inv F
 -0.000000  0.166667 -0.000000    0.00308642   4 t-inv F
 -0.222222 -0.000000 -0.000000    0.00308642   5 t-inv F
  0.222222 -0.222222 -0.000000    0.00308642   5 t-inv F
 -0.222222  0.222222  0.000000    0.00308642   5 t-inv F
  0.000000 -0.222222  0.000000    0.00308642   5 t-inv F
 -0.000000  0.222222 -0.000000    0.00308642   5 t-inv F
[...]
     27      -0.2640      0.00000
     28      -0.2640      0.00000
     29       0.2490      0.00000
     30       0.7542      0.00000
     31       1.1281      0.00000
     32       1.1281      0.00000
     33       2.5589      0.00000
     34       2.5589      0.00000
     35       3.3594      0.00000
     36       4.0513      0.00000
     37       4.0513      0.00000
     38       4.1457      0.00000
     39       6.2261      0.00000
     40       6.2261      0.00000
     41       6.8463      0.00000
     42       7.4576      0.00000
     43       7.5857      0.00000
     44       7.5857      0.00000
     45       8.1802      0.00000
     46       8.6044      0.00000
     47       8.6044      0.00000
     48       8.8032      0.00000
     49       8.8033      0.00000
     50       8.8093      0.00000
     51       8.8708      0.00000
     52       8.9637      0.00000
     53       8.9637      0.00000
     54       9.0018      0.00000
     55       9.0018      0.00000
     56       9.0547      0.00000

 soft charge-density along one line, spin component           1
         0         1         2         3         4         5         6         7         8         9
 total charge-density along one line

------------------------ aborting loop because EDIFF is reached ----------------------------------------

  Hirshfeld charges:
            ion         q(e)
      1     Mo          0.242
      2     Mo          0.242
      3     Te         -0.120
      4     Te         -0.121
      5     Te         -0.121
      6     Te         -0.120

  Atomic reference data used in the T-S method for vdW correction:
            C6at              R0at           ALPHAat      REFSTATE
            (au)              (au)            (au)
   Mo       1028.730          4.101         88.420         0
   Te        396.000          4.214         37.650         0

  Tkatchenko/Scheffler method for vdW energy calculation

  Parameters of vdW forcefield:
            C6ts              R0ts           ALPHAts        RELVOL
            (au)              (au)            (au)
   Mo       1114.293          4.156         92.023          1.041
   Mo       1114.293          4.156         92.023          1.041
   Te        411.597          4.241         38.384          1.019
   Te        403.996          4.228         38.028          1.010
   Te        403.996          4.228         38.028          1.010
   Te        411.597          4.241         38.384          1.019

  IVDW =  20
  VDW_RADIUS =    50.000 A
  VDW_IDAMPF =  0
  VDW_S6 =     1.000
  VDW_SR =     0.940
  VDW_D =    20.000
  LVDW_EWALD = T
  Edisp (eV):   -1.78894

  FORCE on cell =-STRESS in cart. coord.  units (eV):
  Direction    XX          YY          ZZ          XY          YZ          ZX
  Alpha Z    27.60544    27.60544    27.60544
  Ewald   51140.07389 51140.07389-53644.58142    -0.00000    -0.00000     0.00000
  Hartree 52045.50614 52045.50614-51479.13786    -0.00000    -0.00000    -0.00000
  E(xc)    -229.58665  -229.58665  -230.50630    -0.00000     0.00000    -0.00000
  Local  ************************104088.93192    -0.00004    -0.00000     0.00000
  n-local   378.16215   376.10698   391.61935     2.90337     0.05071    -0.12863
  augment  -109.93313  -109.93309  -114.20986     0.00004    -0.00000     0.00000
  Kinetic   954.82822   959.78018   960.38886   -19.53857     0.06598     0.86120
  Fock        0.00000     0.00000     0.00000     0.00000     0.00000     0.00000
  vdW        -1.77403    -1.77403    -1.53651     0.00000     0.00000     0.00000
  Total      -2.23322    -2.23322    -1.42637    -0.00000    -0.00000     0.00000
  in kB      -6.56633    -6.56633    -4.19396    -0.00000    -0.00000     0.00000

 VOLUME and BASIS-vectors are now :
  energy-cutoff  :      344.91
  volume of cell :      544.90
      direct lattice vectors                 reciprocal lattice vectors
     3.547392312  0.000000000  0.000000000     0.281897211  0.162753431  0.000000000
    -1.773696156  3.072131859  0.000000000     0.000000000  0.325506862  0.000000000
     0.000000000  0.000000000 50.000000000     0.000000000  0.000000000  0.020000000

  length of vectors
     3.547392312  3.547392312 50.000000000     0.325506862  0.325506862  0.020000000

 FORCES acting on ions
    electron-ion (+dipol)            ewald-force                    non-local-force                 convergence-correction
   -.354E-07 0.363E-07 0.218E+04   0.889E-11 -.503E-11 -.218E+04   0.139E-16 -.694E-17 0.102E-01   -.377E-10 0.218E-10 -.499E-05
   0.354E-07 -.363E-07 -.218E+04   -.894E-11 0.506E-11 0.218E+04   0.347E-17 0.000E+00 -.102E-01   0.377E-10 -.218E-10 0.499E-05
   -.163E-06 0.176E-06 0.174E+03   -.454E-11 0.258E-11 -.169E+03   0.139E-16 0.000E+00 -.512E+01   -.119E-12 0.683E-13 -.397E-06
   -.245E-06 0.311E-07 0.169E+04   -.444E-11 0.251E-11 -.170E+04   -.347E-17 0.694E-17 0.520E+01   0.115E-12 -.729E-13 0.264E-05
   0.245E-06 -.311E-07 -.169E+04   0.447E-11 -.253E-11 0.170E+04   -.347E-17 0.694E-17 -.520E+01   -.116E-12 0.741E-13 -.264E-05
   0.163E-06 -.176E-06 -.174E+03   0.456E-11 -.259E-11 0.169E+03   -.139E-16 0.000E+00 0.512E+01   0.118E-12 -.676E-13 0.397E-06
   0.796E-10 -.126E-10 0.106E-09   0.249E-14 0.739E-14 0.341E-12   0.104E-16 0.694E-17 0.000E+00   -.157E-13 -.497E-14 -.530E-12

 POSITION                                       TOTAL-FORCE (eV/Angst)
     -0.00000      1.02404     21.51000        -0.000000     -0.000000      0.028015
      1.77370      2.04809     28.49000         0.000000     -0.000000     -0.028015
      1.77370      2.04809     23.31510         0.000000     -0.000000     -0.082931
      1.77370      2.04809     19.70490        -0.000000      0.000000      0.050215
     -0.00000      1.02404     30.29510         0.000000     -0.000000     -0.050215
     -0.00000      1.02404     26.68490         0.000000      0.000000      0.082931
    total drift:                                0.000000     -0.000000      0.000000

  FREE ENERGIE OF THE ION-ELECTRON SYSTEM (eV)
  free  energy   TOTEN  =       -39.40277238 eV

  energy  without entropy=      -39.40277238  energy(sigma->0) =      -39.40277238

 Linear response reoptimize wavefunctions
 Linear response G [H, r] |phi>, progress :
  Direction:   1

[...]

  free energy    TOTEN  =      -249.12866721 eV

[...]

 Linear response G [H, r] |phi>, progress :
  Direction:   2

[...]

 Linear response G [H, r] |phi>, progress :
  Direction:   3

[...]

  free energy    TOTEN  =      -274.23166372 eV

[...]

 Linear response to external field (no local field effect), progress :
  Direction:   1
  LATTYP: Found a hexagonal cell.
 ALAT       =     3.5473923118
 C/A-ratio  =    14.0948605637

[...]

The dynamic configuration has the point symmetry C_2 .

[...]

 Free energy of the ion-electron system (eV)
  -Hartree energ DENC   =         0.00000000
  -V(xc)+E(xc)   XCENC  =         0.00000000
  PAW double counting   =         0.00000000        0.00000000
  entropy T*S    EENTRO =         0.00000000
  eigenvalues    EBANDS =        -4.71177231
  free energy    TOTEN  =        -4.71177231 eV

  energy without entropy =       -4.71177231

[...]

 change of polarisation eV/A/(eV/A) component  1 :    16.246    -0.261    -0.216
 dielectric tensor                  component  1 :     6.395    -0.087    -0.072

[...]

The dynamic configuration has the point symmetry C_1h.

[...]

 Linear response to external field (no local field effect), progress :
  Direction:   3
  LATTYP: Found a hexagonal cell.
 ALAT       =     3.5473923118
 C/A-ratio  =    14.0948605637

[...]

The dynamic configuration has the point symmetry C_1h.
 The point group associated with its full space group is C_3v.

[...]

 HEAD OF MICROSCOPIC STATIC DIELECTRIC TENSOR (INDEPENDENT PARTICLE, excluding Hartree and local field effects)
           6.541070     0.000000     0.000000
           0.000000     6.541070     0.000000
           0.000000    -0.000000     4.087447

 Linear response to external field, progress :
  Direction:   1
  LATTYP: Found a hexagonal cell.
 ALAT       =     3.5473923118
 C/A-ratio  =    14.0948605637

[...]

The dynamic configuration has the point symmetry C_2 .

[...]

  Parameters of vdW forcefield:
            C6ts              R0ts           ALPHAts        RELVOL
            (au)              (au)            (au)
   Mo       1114.293          4.156         92.023          1.041
   Mo       1114.293          4.156         92.023          1.041
   Te        411.597          4.241         38.384          1.019
   Te        403.996          4.228         38.028          1.010
   Te        403.996          4.228         38.028          1.010
   Te        411.597          4.241         38.384          1.019
  Edisp (eV):   -1.78894

[...]

 PIEZOELECTRIC TENSOR FIELD DIRECTION 1  (e Angst)
     0.00029  0.00000  0.00000           ( -0.00081  0.00000  0.00000)
     0.00000  0.00187  0.00023           (  0.00000  0.00041  0.00002)
     0.00000  0.00023 -0.00092           (  0.00000  0.00002 -0.00019)

 PIEZOELECTRIC TENSOR FIELD DIRECTION 1  (C/m^2)
     0.00001  0.00000  0.00000
     0.00000  0.00005  0.00001
     0.00000  0.00001 -0.00003

      POSITION         DIRECTION 1           BORN EFFECTIVE CHARGE    (rigid.aug.   ionic)
     -0.00000      1.02404     21.51000    -3.24996 -0.00008  0.00003 (  0.16214 14.00000)
      1.77370      2.04809     28.49000    -3.24996  0.00008 -0.00003 (  0.16214 14.00000)
      1.77370      2.04809     23.31510     1.59491 -0.00193  0.00028 (  1.18458  6.00000)
      1.77370      2.04809     19.70490     1.60193 -0.00175 -0.00012 (  1.18399  6.00000)
     -0.00000      1.02404     30.29510     1.60193  0.00175  0.00012 (  1.18399  6.00000)
     -0.00000      1.02404     26.68490     1.59491  0.00193 -0.00028 (  1.18458  6.00000)
    total drift (improves with k-points):  -0.10625  0.00000  0.00000

[...]

The dynamic configuration has the point symmetry C_1h.

[...]

 Linear response to external field, progress :
  Direction:   3
  LATTYP: Found a hexagonal cell.
 ALAT       =     3.5473923118
 C/A-ratio  =    14.0948605637

[...]

The dynamic configuration has the point symmetry C_1h.
 The point group associated with its full space group is C_3v.

[...]

----------------------------------------- Iteration    3(  23)  ---------------------------------------

 Broyden mixing:
  rms(total) = 0.40069E-06    rms(broyden)= 0.40045E-06
  rms(prec ) = 0.49887E-06
  weight for this iteration     100.00

 eigenvalues of (default mixing * dielectric matrix)
  average eigenvalue GAMMA=   2.3913
  8.9979  7.4963  5.3821  4.2287  3.0314  3.0314  2.1878  2.1878  1.8064  1.8064
  1.2603  1.2603  1.0924  0.9935  0.9935  0.9632  0.9760  0.7812  0.5035  0.5042
  0.7327

 Free energy of the ion-electron system (eV)
  -Hartree energ DENC   =        -0.43144921
  -V(xc)+E(xc)   XCENC  =         0.00607095
  PAW double counting   =         0.00938723       -0.00924940
  entropy T*S    EENTRO =         0.00000000
  eigenvalues    EBANDS =        -0.09416783
  free energy    TOTEN  =        -0.51940826 eV

  energy without entropy =       -0.51940826

------------------------ aborting loop because EDIFF is reached ----------------------------------------

 change of polarisation eV/A/(eV/A) component  3 :    -0.009     0.003     1.018
 dielectric tensor                  component  3 :    -0.003     0.001     1.338

[...]

  Hirshfeld charges:
            ion         q(e)
      1     Mo          0.242
      2     Mo          0.242
      3     Te         -0.120
      4     Te         -0.121
      5     Te         -0.121
      6     Te         -0.120

  Tkatchenko/Scheffler method for vdW energy calculation

  Parameters of vdW forcefield:
            C6ts              R0ts           ALPHAts        RELVOL
            (au)              (au)            (au)
   Mo       1114.293          4.156         92.023          1.041
   Mo       1114.293          4.156         92.023          1.041
   Te        411.597          4.241         38.384          1.019
   Te        403.996          4.228         38.028          1.010
   Te        403.996          4.228         38.028          1.010
   Te        411.597          4.241         38.384          1.019
  Edisp (eV):   -1.78894

 PIEZOELECTRIC TENSOR FIELD DIRECTION 3  (e Angst)
     0.00422 -0.00000 -0.00000           ( -0.00001 -0.00000  0.00000)
     0.00000  0.00422  0.00000           ( -0.00000 -0.00001  0.00000)
     0.00000 -0.00000 -0.00191           (  0.00000  0.00000  0.00001)

 PIEZOELECTRIC TENSOR FIELD DIRECTION 3  (C/m^2)
     0.00012 -0.00000 -0.00000
     0.00000  0.00012  0.00000
     0.00000 -0.00000 -0.00006

      POSITION         DIRECTION 3           BORN EFFECTIVE CHARGE    (rigid.aug.   ionic)
     -0.00000      1.02404     21.51000    -0.00000  0.00000 -7.23991 (  0.16214 14.00000)
      1.77370      2.04809     28.49000     0.00000 -0.00000 -7.24150 (  0.16214 14.00000)
      1.77370      2.04809     23.31510    -0.00000 -0.00000  0.10172 (  1.18458  6.00000)
      1.77370      2.04809     19.70490     0.00000  0.00000  0.22121 (  1.18399  6.00000)
     -0.00000      1.02404     30.29510     0.00000 -0.00000  0.21804 (  1.18399  6.00000)
     -0.00000      1.02404     26.68490     0.00000 -0.00000  0.09733 (  1.18458  6.00000)
    total drift (improves with k-points):   0.00000 -0.00000-13.84310

[...]

 MACROSCOPIC STATIC DIELECTRIC TENSOR (including local field effects in DFT)
           6.287721    -0.000000     0.000000
           0.000000     6.287721    -0.000000
          -0.000000     0.000000     1.338016

  LATTYP: Found a hexagonal cell.
 ALAT       =     3.5473923118
 C/A-ratio  =    14.0948605637

  Lattice vectors:

 A1 = (   3.5473923118,   0.0000000000,   0.0000000000)
 A2 = (  -1.7736961559,   3.0721318592,   0.0000000000)
 A3 = (   0.0000000000,   0.0000000000,  50.0000000000)

Analysis of symmetry for initial positions (statically):
 Subroutine PRICEL returns:
 Original cell was already a primitive cell.

[...]

The static configuration has the point symmetry C_2h.
 The point group associated with its full space group is D_3d.

Analysis of symmetry for dynamics (positions and initial velocities):
 Subroutine PRICEL returns:
 Original cell was already a primitive cell.

 Routine SETGRP: Setting up the symmetry group for a
 hexagonal supercell.

 Subroutine GETGRP returns: Found 12 space group operations
 (whereof  4 operations were pure point group operations)
 out of a pool of 24 trial point group operations.

The dynamic configuration has the point symmetry C_2h.
 The point group associated with its full space group is D_3d.

 Subroutine INISYM returns: Found 12 space group operations
 (whereof  4 operations are pure point group operations),
 and found     1 'primitive' translations

 MACROSCOPIC STATIC DIELECTRIC TENSOR (including local field effects in DFT)
           6.287721    -0.000000     0.000000
           0.000000     6.287721    -0.000000
          -0.000000     0.000000     1.338016

 PIEZOELECTRIC TENSOR  for field in x, y, z        (e  Angst)
          XX          YY          ZZ          XY          YZ          ZX
  x     0.00029     0.00187    -0.00092     0.00000     0.00023     0.00000
  y    -0.00593     0.01242     0.00167     0.00000     0.00056     0.00000
  z     0.00422     0.00422    -0.00191     0.00000    -0.00000    -0.00000

 PIEZOELECTRIC TENSOR  for field in x, y, z        (C/m^2)
          XX          YY          ZZ          XY          YZ          ZX
  x     0.00000     0.00000     0.00000     0.00000     0.00000     0.00000
  y     0.00000     0.00000     0.00000     0.00000     0.00000     0.00000
  z     0.00000     0.00000     0.00000     0.00000     0.00000     0.00000

 BORN EFFECTIVE CHARGES (in e, cummulative output)
 ion    1
    1    -3.24996    -0.00008     0.00003
    2     0.00000    -3.25055    -0.00021
    3    -0.00000     0.00000    -7.23991
 ion    2
    1    -3.24996     0.00008    -0.00003
    2    -0.00000    -3.24943     0.00023
    3     0.00000    -0.00000    -7.24150
 ion    3
    1     1.59491    -0.00193     0.00028
    2     0.00000     1.59529     0.00233
    3    -0.00000    -0.00000     0.10172
 ion    4
    1     1.60193    -0.00175    -0.00012
    2    -0.00000     1.60222    -0.00128
    3     0.00000     0.00000     0.22121
 ion    5
    1     1.60193     0.00175     0.00012
    2     0.00000     1.60164     0.00126
    3     0.00000    -0.00000     0.21804
 ion    6
    1     1.59491     0.00193    -0.00028
    2     0.00000     1.59453    -0.00231
    3     0.00000    -0.00000     0.09733

 writing wavefunctions
 BZINTS: Fermi energy: -1.054721; 52.000000 electrons
         Band energy:-886.021489;  BLOECHL correction:  0.000000