 vasp.5.4.1 24Jun15 (build Apr 13 2016 13:07:19) complex

 executed on           IFC91_ompi date 2019.09.14  01:00:43

 INCAR:
 POTCAR:    PAW_PBE Mo_sv_GW 05Dec2013
 POTCAR:    PAW_PBE Te_GW 22Mar2012

 POTCAR:    PAW_PBE Mo_sv_GW 05Dec2013
   VRHFIN =Mo: 4s4p5s4d

   TITEL  = PAW_PBE Mo_sv_GW 05Dec2013
   POMASS =   95.940; ZVAL   =   14.000    mass and valenz
   ENMAX  =  344.914; ENMIN  =  258.686 eV

 POTCAR:    PAW_PBE Te_GW 22Mar2012
   VRHFIN =Te: s2p4

   TITEL  = PAW_PBE Te_GW 22Mar2012
   POMASS =  127.600; ZVAL   =    6.000    mass and valenz
   ENMAX  =  174.982; ENMIN  =  131.236 eV

  PAW_PBE Mo_sv_GW 05Dec2013            :
  PAW_PBE Te_GW 22Mar2012               :

 POSCAR: Mo Te
  positions in cartesian coordinates
 exchange correlation table for  LEXCH =        8
   RHO(1)=    0.500       N(1)  =     2000
   RHO(2)=  100.500       N(2)  =     4000

 ion  position               nearest neighbor table
   1  0.167  0.333  0.360-   4 2.73   5 2.73   4 2.73   5 2.73   4 2.73   5 2.73
   2  0.833  0.667  0.500-   6 2.73   7 2.73   6 2.73   7 2.73   6 2.73   7 2.73
   3  0.167  0.333  0.640-   8 2.73   9 2.73   8 2.73   9 2.73   8 2.73   9 2.73
   4  0.833  0.667  0.397-   1 2.73   1 2.73   1 2.73   5 3.61
   5  0.833  0.667  0.324-   1 2.73   1 2.73   1 2.73   4 3.61
   6  0.167  0.333  0.536-   2 2.73   2 2.73   2 2.73   7 3.61
   7  0.167  0.333  0.464-   2 2.73   2 2.73   2 2.73   6 3.61
   8  0.833  0.667  0.676-   3 2.73   3 2.73   3 2.73   9 3.61
   9  0.833  0.667  0.603-   3 2.73   3 2.73   3 2.73   8 3.61

  LATTYP: Found a hexagonal cell.
 ALAT       =     3.5473923118
 C/A-ratio  =    14.0948605637

  Lattice vectors:

 A1 = (   3.5473923118,   0.0000000000,   0.0000000000)
 A2 = (  -1.7736961559,   3.0721318592,   0.0000000000)
 A3 = (   0.0000000000,   0.0000000000,  50.0000000000)

Analysis of symmetry for initial positions (statically):
 Subroutine PRICEL returns:
 Original cell was already a primitive cell.

 Routine SETGRP: Setting up the symmetry group for a
 hexagonal supercell.

 Subroutine GETGRP returns: Found 12 space group operations
 (whereof  4 operations were pure point group operations)
 out of a pool of 24 trial point group operations.

The static configuration has the point symmetry C_2v.
 The point group associated with its full space group is D_3h.

Analysis of symmetry for dynamics (positions and initial velocities):
 Subroutine PRICEL returns:
 Original cell was already a primitive cell.

[...]

The dynamic configuration has the point symmetry C_2v.
 The point group associated with its full space group is D_3h.

 Subroutine INISYM returns: Found 12 space group operations
 (whereof  4 operations are pure point group operations),
 and found     1 'primitive' translations

 KPOINTS: KPOINTS created by Atomic Simulation Env

Automatic generation of k-mesh.
Space group operators:
 irot       det(A)        alpha          n_x          n_y          n_z        tau_x        tau_y        tau_z
    1     1.000000     0.000001     1.000000     0.000000     0.000000     0.000000     0.000000     0.000000
    2    -1.000000   179.999999     0.000000     0.000000     1.000000     0.000000     0.000000     0.000000
    3    -1.000000   180.000000     1.000000     0.000000     0.000000     0.000000     0.000000     0.000000
    4     1.000000   179.999999     0.000000     1.000000     0.000000     0.000000     0.000000     0.000000
    5    -1.000000    60.000000     0.000000     0.000000    -1.000000     0.000000     0.500000     0.000000
    6     1.000000   120.000000     0.000000     0.000000    -1.000000     0.500000     0.500000     0.000000
    7     1.000000   120.000000     0.000000     0.000000     1.000000     0.000000     0.500000     0.000000
    8    -1.000000    60.000000     0.000000     0.000000     1.000000     0.500000     0.500000     0.000000
    9     1.000000   180.000000     0.866025    -0.500000     0.000000     0.500000     0.500000     0.000000
   10    -1.000000   180.000000     0.500000    -0.866025     0.000000     0.000000     0.500000     0.000000
   11    -1.000000   180.000000    -0.500000    -0.866025     0.000000     0.500000     0.500000     0.000000
   12     1.000000   180.000000     0.866025     0.500000     0.000000     0.000000     0.500000     0.000000

 Subroutine IBZKPT returns following result:

 Found     37 irreducible k-points:

 Following reciprocal coordinates:
            Coordinates               Weight
  0.000000  0.000000  0.000000      1.000000
  0.055556  0.000000  0.000000      6.000000
  0.111111  0.000000  0.000000      6.000000
  0.166667  0.000000  0.000000      6.000000
  0.222222  0.000000  0.000000      6.000000
  0.277778  0.000000  0.000000      6.000000
  0.333333  0.000000  0.000000      6.000000
  0.388889  0.000000  0.000000      6.000000
  0.444444  0.000000  0.000000      6.000000
  0.500000  0.000000  0.000000      3.000000
  0.055556  0.055556  0.000000      6.000000
  0.111111  0.055556  0.000000     12.000000
  0.166667  0.055556  0.000000     12.000000
  0.222222  0.055556  0.000000     12.000000
  0.277778  0.055556  0.000000     12.000000
  0.333333  0.055556  0.000000     12.000000
  0.388889  0.055556  0.000000     12.000000
  0.444444  0.055556  0.000000     12.000000
  0.111111  0.111111  0.000000      6.000000
  0.166667  0.111111  0.000000     12.000000
  0.222222  0.111111  0.000000     12.000000
  0.277778  0.111111  0.000000     12.000000
  0.333333  0.111111  0.000000     12.000000
  0.388889  0.111111  0.000000     12.000000
  0.444444  0.111111  0.000000      6.000000
  0.166667  0.166667  0.000000      6.000000
  0.222222  0.166667  0.000000     12.000000
  0.277778  0.166667  0.000000     12.000000
  0.333333  0.166667  0.000000     12.000000
  0.388889  0.166667  0.000000     12.000000
  0.222222  0.222222  0.000000      6.000000
  0.277778  0.222222  0.000000     12.000000
  0.333333  0.222222  0.000000     12.000000
  0.388889  0.222222  0.000000      6.000000
  0.277778  0.277778  0.000000      6.000000
  0.333333  0.277778  0.000000     12.000000
  0.333333  0.333333  0.000000      2.000000

 Following cartesian coordinates:
            Coordinates               Weight
  0.000000  0.000000  0.000000      1.000000
  0.015661  0.009042  0.000000      6.000000
  0.031322  0.018084  0.000000      6.000000
  0.046983  0.027126  0.000000      6.000000
  0.062644  0.036167  0.000000      6.000000
  0.078305  0.045209  0.000000      6.000000
  0.093966  0.054251  0.000000      6.000000
  0.109627  0.063293  0.000000      6.000000
  0.125288  0.072335  0.000000      6.000000
  0.140949  0.081377  0.000000      3.000000
  0.015661  0.027126  0.000000      6.000000
  0.031322  0.036167  0.000000     12.000000
  0.046983  0.045209  0.000000     12.000000
  0.062644  0.054251  0.000000     12.000000
  0.078305  0.063293  0.000000     12.000000
  0.093966  0.072335  0.000000     12.000000
  0.109627  0.081377  0.000000     12.000000
  0.125288  0.090419  0.000000     12.000000
  0.031322  0.054251  0.000000      6.000000
  0.046983  0.063293  0.000000     12.000000
  0.062644  0.072335  0.000000     12.000000
  0.078305  0.081377  0.000000     12.000000
  0.093966  0.090419  0.000000     12.000000
  0.109627  0.099460  0.000000     12.000000
  0.125288  0.108502  0.000000      6.000000
  0.046983  0.081377  0.000000      6.000000
  0.062644  0.090419  0.000000     12.000000
  0.078305  0.099460  0.000000     12.000000
  0.093966  0.108502  0.000000     12.000000
  0.109627  0.117544  0.000000     12.000000
  0.062644  0.108502  0.000000      6.000000
  0.078305  0.117544  0.000000     12.000000
  0.093966  0.126586  0.000000     12.000000
  0.109627  0.135628  0.000000      6.000000
  0.078305  0.135628  0.000000      6.000000
  0.093966  0.144670  0.000000     12.000000
  0.093966  0.162753  0.000000      2.000000

 TETIRR: Found    169 inequivalent tetrahedra from     1944

 Subroutine IBZKPT_HF returns following result:

 Found    324 k-points in 1st BZ
 the following    324 k-points will be used (e.g. in the exchange kernel)
 Following reciprocal coordinates:   # in IRBZ
  0.000000  0.000000  0.000000    0.00308642   1 t-inv F
  0.055556  0.000000  0.000000    0.00308642   2 t-inv F
  0.111111  0.000000  0.000000    0.00308642   3 t-inv F
  0.166667  0.000000  0.000000    0.00308642   4 t-inv F
  0.222222  0.000000  0.000000    0.00308642   5 t-inv F
  0.277778  0.000000  0.000000    0.00308642   6 t-inv F
  0.333333  0.000000  0.000000    0.00308642   7 t-inv F
  0.388889  0.000000  0.000000    0.00308642   8 t-inv F
  0.444444  0.000000  0.000000    0.00308642   9 t-inv F
  0.500000  0.000000  0.000000    0.00308642  10 t-inv F
  0.055556  0.055556  0.000000    0.00308642  11 t-inv F
  0.111111  0.055556  0.000000    0.00308642  12 t-inv F
  0.166667  0.055556  0.000000    0.00308642  13 t-inv F
  0.222222  0.055556  0.000000    0.00308642  14 t-inv F
  0.277778  0.055556  0.000000    0.00308642  15 t-inv F
  0.333333  0.055556  0.000000    0.00308642  16 t-inv F
  0.388889  0.055556  0.000000    0.00308642  17 t-inv F
  0.444444  0.055556  0.000000    0.00308642  18 t-inv F
  0.111111  0.111111  0.000000    0.00308642  19 t-inv F
  0.166667  0.111111  0.000000    0.00308642  20 t-inv F
  0.222222  0.111111  0.000000    0.00308642  21 t-inv F
  0.277778  0.111111  0.000000    0.00308642  22 t-inv F
  0.333333  0.111111  0.000000    0.00308642  23 t-inv F
  0.388889  0.111111  0.000000    0.00308642  24 t-inv F
  0.444444  0.111111  0.000000    0.00308642  25 t-inv F
  0.166667  0.166667  0.000000    0.00308642  26 t-inv F
  0.222222  0.166667  0.000000    0.00308642  27 t-inv F
  0.277778  0.166667  0.000000    0.00308642  28 t-inv F
  0.333333  0.166667  0.000000    0.00308642  29 t-inv F
  0.388889  0.166667  0.000000    0.00308642  30 t-inv F
  0.222222  0.222222  0.000000    0.00308642  31 t-inv F
  0.277778  0.222222  0.000000    0.00308642  32 t-inv F
  0.333333  0.222222  0.000000    0.00308642  33 t-inv F
  0.388889  0.222222  0.000000    0.00308642  34 t-inv F
  0.277778  0.277778  0.000000    0.00308642  35 t-inv F
  0.333333  0.277778  0.000000    0.00308642  36 t-inv F
  0.333333  0.333333  0.000000    0.00308642  37 t-inv F
 -0.055556  0.055556  0.000000    0.00308642   2 t-inv F
  0.000000 -0.055556 -0.000000    0.00308642   2 t-inv F
 -0.111111  0.111111  0.000000    0.00308642   3 t-inv F
  0.000000 -0.111111 -0.000000    0.00308642   3 t-inv F
 -0.166667  0.166667  0.000000    0.00308642   4 t-inv F
  0.000000 -0.166667 -0.000000    0.00308642   4 t-inv F
 -0.222222  0.222222  0.000000    0.00308642   5 t-inv F
  0.000000 -0.222222 -0.000000    0.00308642   5 t-inv F
 -0.277778  0.277778  0.000000    0.00308642   6 t-inv F
  0.000000 -0.277778 -0.000000    0.00308642   6 t-inv F
 -0.333333  0.333333  0.000000    0.00308642   7 t-inv F
  0.000000 -0.333333 -0.000000    0.00308642   7 t-inv F
 -0.388889  0.388889  0.000000    0.00308642   8 t-inv F
  0.000000 -0.388889 -0.000000    0.00308642   8 t-inv F
 -0.444444  0.444444  0.000000    0.00308642   9 t-inv F
  0.000000 -0.444444 -0.000000    0.00308642   9 t-inv F
[...]
   Te        411.616          4.241         38.385          1.020
   Te        404.012          4.228         38.029          1.010
   Te        411.618          4.241         38.385          1.020
   Te        411.618          4.241         38.385          1.020
   Te        404.012          4.228         38.029          1.010
   Te        411.616          4.241         38.385          1.020

  IVDW =  20
  VDW_RADIUS =    50.000 A
  VDW_IDAMPF =  0
  VDW_S6 =     1.000
  VDW_SR =     0.940
  VDW_D =    20.000
  LVDW_EWALD = T
  Edisp (eV):   -2.87739

  FORCE on cell =-STRESS in cart. coord.  units (eV):
  Direction    XX          YY          ZZ          XY          YZ          ZX
  Alpha Z    62.11225    62.11225    62.11225
  Ewald   74045.10105 74045.10105-77802.44083    -0.00000    -0.00000    -0.00000
  Hartree 75560.83308 75560.83308-74711.37357    -0.00000    -0.00000    -0.00000
  E(xc)    -344.46401  -344.46401  -345.70179    -0.00000    -0.00000     0.00000
  Local  ************************150941.22379    -0.00005    -0.00000    -0.00000
  n-local   567.32752   564.29596   587.29573     4.33947    -0.00000    -0.00000
  augment  -164.94895  -164.94888  -171.24116     0.00006     0.00000     0.00000
  Kinetic  1432.52129  1439.89410  1440.61143   -29.10724     0.00000     0.00000
  Fock        0.00000     0.00000     0.00000     0.00000     0.00000     0.00000
  vdW        -2.84490    -2.84490    -2.78284     0.00000    -0.00000    -0.00000
  Total      -3.44263    -3.44263    -2.29699     0.00000     0.00000    -0.00000
  in kB     -10.12235   -10.12235    -6.75384     0.00000     0.00000    -0.00000

 VOLUME and BASIS-vectors are now :
  energy-cutoff  :      344.91
  volume of cell :      544.90
      direct lattice vectors                 reciprocal lattice vectors
     3.547392312  0.000000000  0.000000000     0.281897211  0.162753431  0.000000000
    -1.773696156  3.072131859  0.000000000     0.000000000  0.325506862  0.000000000
     0.000000000  0.000000000 50.000000000     0.000000000  0.000000000  0.020000000

  length of vectors
     3.547392312  3.547392312 50.000000000     0.325506862  0.325506862  0.020000000

 FORCES acting on ions
    electron-ion (+dipol)            ewald-force                    non-local-force                 convergence-correction
   -.402E-07 0.287E-07 0.351E+04   0.889E-11 -.503E-11 -.351E+04   0.000E+00 0.000E+00 0.919E-02   -.162E-11 0.921E-12 0.165E-05
   0.406E-07 -.234E-07 0.317E-10   -.894E-11 0.506E-11 -.455E-12   0.000E+00 -.347E-17 0.000E+00   -.380E-10 0.219E-10 0.269E-12
   -.449E-07 0.204E-07 -.351E+04   0.889E-11 -.503E-11 0.351E+04   -.104E-16 0.000E+00 -.919E-02   -.165E-11 0.933E-12 -.165E-05
   -.145E-06 0.211E-06 0.840E+03   -.454E-11 0.258E-11 -.834E+03   -.412E-17 -.471E-16 -.513E+01   -.105E-11 0.612E-12 -.460E-05
   -.211E-06 0.526E-07 0.217E+04   -.444E-11 0.251E-11 -.218E+04   -.434E-17 -.173E-16 0.520E+01   -.148E-12 0.731E-13 0.270E-05
   0.206E-06 -.472E-07 -.666E+03   0.456E-11 -.258E-11 0.671E+03   -.434E-18 -.379E-17 -.510E+01   0.255E-11 -.147E-11 -.220E-05
   0.144E-06 -.155E-06 0.666E+03   0.456E-11 -.259E-11 -.671E+03   -.138E-16 -.365E-16 0.510E+01   0.256E-11 -.149E-11 0.220E-05
   -.151E-06 0.157E-06 -.217E+04   -.444E-11 0.252E-11 0.218E+04   -.260E-17 -.520E-17 -.520E+01   -.144E-12 0.973E-13 -.270E-05
   -.255E-06 0.195E-07 -.840E+03   -.454E-11 0.257E-11 0.834E+03   0.130E-17 -.460E-16 0.513E+01   -.105E-11 0.601E-12 0.460E-05
   -.458E-06 0.264E-06 0.115E-09   0.374E-14 0.111E-13 0.682E-12   -.344E-16 -.159E-15 0.000E+00   -.385E-10 0.222E-10 -.677E-11

 POSITION                                       TOTAL-FORCE (eV/Angst)
     -0.00000      1.02404     18.02000         0.000000     -0.000000      0.028455
      1.77370      2.04809     25.00000         0.000000     -0.000000      0.000000
     -0.00000      1.02404     31.98000         0.000000     -0.000000     -0.028455
      1.77370      2.04809     19.82510        -0.000000      0.000000     -0.082805
      1.77370      2.04809     16.21490         0.000000     -0.000000      0.050287
     -0.00000      1.02404     26.80510        -0.000000      0.000000     -0.102876
     -0.00000      1.02404     23.19490        -0.000000      0.000000      0.102876
      1.77370      2.04809     33.78510         0.000000     -0.000000     -0.050287
      1.77370      2.04809     30.17490        -0.000000     -0.000000      0.082805
    total drift:                               -0.000000      0.000000      0.000000

  FREE ENERGIE OF THE ION-ELECTRON SYSTEM (eV)
  free  energy   TOTEN  =       -59.29094780 eV

  energy  without entropy=      -59.29094780  energy(sigma->0) =      -59.29094780

 Linear response reoptimize wavefunctions
 Linear response G [H, r] |phi>, progress :
  Direction:   1

[...]

  free energy    TOTEN  =      -373.78244625 eV

[...]

 Linear response G [H, r] |phi>, progress :
  Direction:   2

[...]

 Linear response G [H, r] |phi>, progress :
  Direction:   3

[...]

  free energy    TOTEN  =      -411.24857187 eV

[...]

 Linear response to external field (no local field effect), progress :
  Direction:   1
  LATTYP: Found a hexagonal cell.
 ALAT       =     3.5473923118
 C/A-ratio  =    14.0948605637

[...]

The dynamic configuration has the point symmetry C_1h.

[...]

 Free energy of the ion-electron system (eV)
  -Hartree energ DENC   =         0.00000000
  -V(xc)+E(xc)   XCENC  =         0.00000000
  PAW double counting   =         0.00000000        0.00000000
  entropy T*S    EENTRO =         0.00000000
  eigenvalues    EBANDS =        -7.09456981
  free energy    TOTEN  =        -7.09456981 eV

  energy without entropy =       -7.09456981

[...]

 change of polarisation eV/A/(eV/A) component  1 :    24.494    -0.545     0.000
 dielectric tensor                  component  1 :     9.134    -0.181     0.000

[...]

The dynamic configuration has the point symmetry C_2v.

[...]

 Linear response to external field (no local field effect), progress :
  Direction:   3
  LATTYP: Found a hexagonal cell.
 ALAT       =     3.5473923118
 C/A-ratio  =    14.0948605637

[...]

The dynamic configuration has the point symmetry C_1h.
 The point group associated with its full space group is C_3v.

[...]

 HEAD OF MICROSCOPIC STATIC DIELECTRIC TENSOR (INDEPENDENT PARTICLE, excluding Hartree and local field effects)
           9.349283     0.000000     0.000000
           0.000000     9.349283     0.000000
           0.000000     0.000000     5.930527

 Linear response to external field, progress :
  Direction:   1
  LATTYP: Found a hexagonal cell.
 ALAT       =     3.5473923118
 C/A-ratio  =    14.0948605637

[...]

The dynamic configuration has the point symmetry C_1h.

[...]

  Parameters of vdW forcefield:
            C6ts              R0ts           ALPHAts        RELVOL
            (au)              (au)            (au)
   Mo       1114.306          4.156         92.024          1.041
   Mo       1118.972          4.159         92.216          1.043
   Mo       1114.306          4.156         92.024          1.041
   Te        411.616          4.241         38.385          1.020
   Te        404.012          4.228         38.029          1.010
   Te        411.618          4.241         38.385          1.020
   Te        411.618          4.241         38.385          1.020
   Te        404.012          4.228         38.029          1.010
   Te        411.616          4.241         38.385          1.020
  Edisp (eV):   -2.87739

[...]

 PIEZOELECTRIC TENSOR FIELD DIRECTION 1  (e Angst)
    -0.00666 -1.61407  0.00000           ( -0.00004  0.05671  0.00000)
    -1.61408  0.00359  0.00000           (  0.05671  0.00020  0.00000)
     0.00000  0.00000 -0.00001           (  0.00000  0.00000  0.00010)

 PIEZOELECTRIC TENSOR FIELD DIRECTION 1  (C/m^2)
    -0.00020 -0.04746  0.00000
    -0.04746  0.00011  0.00000
     0.00000  0.00000 -0.00000

      POSITION         DIRECTION 1           BORN EFFECTIVE CHARGE    (rigid.aug.   ionic)
     -0.00000      1.02404     18.02000    -3.20699 -0.00083  0.00004 (  0.16213 14.00000)
      1.77370      2.04809     25.00000    -3.18616  0.00089  0.00000 (  0.16200 14.00000)
     -0.00000      1.02404     31.98000    -3.20699 -0.00083 -0.00004 (  0.16213 14.00000)
      1.77370      2.04809     19.82510     1.59321 -0.00030 -0.00048 (  1.18462  6.00000)
      1.77370      2.04809     16.21490     1.60212 -0.00033  0.00025 (  1.18399  6.00000)
     -0.00000      1.02404     26.80510     1.58864  0.00031 -0.00047 (  1.18455  6.00000)
     -0.00000      1.02404     23.19490     1.58864  0.00031  0.00047 (  1.18455  6.00000)
      1.77370      2.04809     33.78510     1.60212 -0.00033 -0.00025 (  1.18399  6.00000)
      1.77370      2.04809     30.17490     1.59321 -0.00030  0.00048 (  1.18462  6.00000)
    total drift (improves with k-points):  -0.03219 -0.00141  0.00000

[...]

The dynamic configuration has the point symmetry C_2v.

[...]

 Linear response to external field, progress :
  Direction:   3
  LATTYP: Found a hexagonal cell.
 ALAT       =     3.5473923118
 C/A-ratio  =    14.0948605637

[...]

The dynamic configuration has the point symmetry C_1h.
 The point group associated with its full space group is C_3v.

[...]

----------------------------------------- Iteration    3(  25)  ---------------------------------------

 Broyden mixing:
  rms(total) = 0.73254E-06    rms(broyden)= 0.73242E-06
  rms(prec ) = 0.81651E-06
  weight for this iteration     100.00

 eigenvalues of (default mixing * dielectric matrix)
  average eigenvalue GAMMA=   2.2738
  9.2499  7.9886  5.5888  4.1417  2.9984  2.9984  2.1232  2.1232  1.9905  1.8031
  1.2768  1.2768  0.9293  0.9293  1.0061  0.9519  0.9519  0.9331  0.7568  0.7222
  0.5315  0.5244  0.5007

 Free energy of the ion-electron system (eV)
  -Hartree energ DENC   =        -0.76882867
  -V(xc)+E(xc)   XCENC  =         0.00969909
  PAW double counting   =         0.01801993       -0.01775605
  entropy T*S    EENTRO =         0.00000000
  eigenvalues    EBANDS =        -0.17869043
  free energy    TOTEN  =        -0.93755613 eV

  energy without entropy =       -0.93755613

------------------------ aborting loop because EDIFF is reached ----------------------------------------

 change of polarisation eV/A/(eV/A) component  3 :     0.000     0.000     1.841
 dielectric tensor                  component  3 :     0.000     0.000     1.611

[...]

  Hirshfeld charges:
            ion         q(e)
      1     Mo          0.242
      2     Mo          0.241
      3     Mo          0.242
      4     Te         -0.121
      5     Te         -0.121
      6     Te         -0.120
      7     Te         -0.120
      8     Te         -0.121
      9     Te         -0.121

  Tkatchenko/Scheffler method for vdW energy calculation

  Parameters of vdW forcefield:
            C6ts              R0ts           ALPHAts        RELVOL
            (au)              (au)            (au)
   Mo       1114.306          4.156         92.024          1.041
   Mo       1118.972          4.159         92.216          1.043
   Mo       1114.306          4.156         92.024          1.041
   Te        411.616          4.241         38.385          1.020
   Te        404.012          4.228         38.029          1.010
   Te        411.618          4.241         38.385          1.020
   Te        411.618          4.241         38.385          1.020
   Te        404.012          4.228         38.029          1.010
   Te        411.617          4.241         38.385          1.020
  Edisp (eV):   -2.87739

 PIEZOELECTRIC TENSOR FIELD DIRECTION 3  (e Angst)
    -0.00013  0.00000  0.00000           (  0.00000  0.00000  0.00000)
    -0.00000 -0.00013  0.00000           (  0.00000  0.00000  0.00000)
     0.00000  0.00000 -0.00030           (  0.00000  0.00000 -0.00000)

 PIEZOELECTRIC TENSOR FIELD DIRECTION 3  (C/m^2)
    -0.00000  0.00000  0.00000
    -0.00000 -0.00000  0.00000
     0.00000  0.00000 -0.00001

      POSITION         DIRECTION 3           BORN EFFECTIVE CHARGE    (rigid.aug.   ionic)
     -0.00000      1.02404     18.02000    -0.00000  0.00000-25.91480 (  0.16213 14.00000)
      1.77370      2.04809     25.00000    -0.00000 -0.00000 -0.12513 (  0.16200 14.00000)
     -0.00000      1.02404     31.98000     0.00000 -0.00000-25.91480 (  0.16213 14.00000)
      1.77370      2.04809     19.82510     0.00000 -0.00000 -0.59082 (  1.18462  6.00000)
      1.77370      2.04809     16.21490     0.00000  0.00000 -0.03807 (  1.18399  6.00000)
     -0.00000      1.02404     26.80510     0.00000  0.00000  0.24791 (  1.18455  6.00000)
     -0.00000      1.02404     23.19490    -0.00000 -0.00000  0.24791 (  1.18455  6.00000)
      1.77370      2.04809     33.78510     0.00000 -0.00000 -0.03807 (  1.18399  6.00000)
      1.77370      2.04809     30.17490    -0.00000  0.00000 -0.59082 (  1.18462  6.00000)
    total drift (improves with k-points):   0.00000  0.00000-52.71669

[...]

 MACROSCOPIC STATIC DIELECTRIC TENSOR (including local field effects in DFT)
           8.965294    -0.000000     0.000000
           0.000000     8.965294     0.000000
           0.000000     0.000000     1.611355

  LATTYP: Found a hexagonal cell.
 ALAT       =     3.5473923118
 C/A-ratio  =    14.0948605637

  Lattice vectors:

 A1 = (   3.5473923118,   0.0000000000,   0.0000000000)
 A2 = (  -1.7736961559,   3.0721318592,   0.0000000000)
 A3 = (   0.0000000000,   0.0000000000,  50.0000000000)

Analysis of symmetry for initial positions (statically):
 Subroutine PRICEL returns:
 Original cell was already a primitive cell.

[...]

The static configuration has the point symmetry C_2v.
 The point group associated with its full space group is D_3h.

Analysis of symmetry for dynamics (positions and initial velocities):
 Subroutine PRICEL returns:
 Original cell was already a primitive cell.

 Routine SETGRP: Setting up the symmetry group for a
 hexagonal supercell.

 Subroutine GETGRP returns: Found 12 space group operations
 (whereof  4 operations were pure point group operations)
 out of a pool of 24 trial point group operations.

The dynamic configuration has the point symmetry C_2v.
 The point group associated with its full space group is D_3h.

 Subroutine INISYM returns: Found 12 space group operations
 (whereof  4 operations are pure point group operations),
 and found     1 'primitive' translations

 MACROSCOPIC STATIC DIELECTRIC TENSOR (including local field effects in DFT)
           8.965294    -0.000000     0.000000
           0.000000     8.965294     0.000000
           0.000000     0.000000     1.611355

 PIEZOELECTRIC TENSOR  for field in x, y, z        (e  Angst)
          XX          YY          ZZ          XY          YZ          ZX
  x    -0.00666     0.00359    -0.00001    -1.61408     0.00000     0.00000
  y    -1.62387     1.63056     0.00143     0.00000     0.00000     0.00000
  z    -0.00013    -0.00013    -0.00030    -0.00000     0.00000     0.00000

 PIEZOELECTRIC TENSOR  for field in x, y, z        (C/m^2)
          XX          YY          ZZ          XY          YZ          ZX
  x     0.00000     0.00000     0.00000    -0.04765     0.00000     0.00000
  y    -0.04765     0.04765    -0.00000     0.00000     0.00000     0.00000
  z     0.00000     0.00000     0.00000     0.00000    -0.00000     0.00000

 BORN EFFECTIVE CHARGES (in e, cummulative output)
 ion    1
    1    -3.20699    -0.00083     0.00004
    2    -0.00000    -3.20736    -0.00012
    3    -0.00000     0.00000   -25.91480
 ion    2
    1    -3.18616     0.00089     0.00000
    2     0.00000    -3.18596     0.00000
    3    -0.00000    -0.00000    -0.12513
 ion    3
    1    -3.20699    -0.00083    -0.00004
    2     0.00000    -3.20736     0.00012
    3     0.00000    -0.00000   -25.91480
 ion    4
    1     1.59321    -0.00030    -0.00048
    2     0.00000     1.59351     0.00132
    3     0.00000    -0.00000    -0.59082
 ion    5
    1     1.60212    -0.00033     0.00025
    2    -0.00000     1.60228    -0.00073
    3     0.00000     0.00000    -0.03807
 ion    6
    1     1.58864     0.00031    -0.00047
    2     0.00000     1.58833     0.00124
    3     0.00000     0.00000     0.24791
 ion    7
    1     1.58864     0.00031     0.00047
    2     0.00000     1.58833    -0.00124
    3    -0.00000    -0.00000     0.24791
 ion    8
    1     1.60212    -0.00033    -0.00025
    2    -0.00000     1.60228     0.00073
    3     0.00000    -0.00000    -0.03807
 ion    9
    1     1.59321    -0.00030     0.00048
    2     0.00000     1.59351    -0.00132
    3    -0.00000     0.00000    -0.59082

 writing wavefunctions
 BZINTS: Fermi energy:  0.692169; 78.000000 electrons
         Band energy:***********;  BLOECHL correction:  0.000000