 vasp.5.4.1 24Jun15 (build Apr 13 2016 13:07:19) complex

 executed on           IFC91_ompi date 2019.09.14  01:32:22

 INCAR:
 POTCAR:    PAW_PBE Mo_sv_GW 05Dec2013
 POTCAR:    PAW_PBE Te_GW 22Mar2012

 POTCAR:    PAW_PBE Mo_sv_GW 05Dec2013
   VRHFIN =Mo: 4s4p5s4d

   TITEL  = PAW_PBE Mo_sv_GW 05Dec2013
   POMASS =   95.940; ZVAL   =   14.000    mass and valenz
   ENMAX  =  344.914; ENMIN  =  258.686 eV

 POTCAR:    PAW_PBE Te_GW 22Mar2012
   VRHFIN =Te: s2p4

   TITEL  = PAW_PBE Te_GW 22Mar2012
   POMASS =  127.600; ZVAL   =    6.000    mass and valenz
   ENMAX  =  174.982; ENMIN  =  131.236 eV

  PAW_PBE Mo_sv_GW 05Dec2013            :
  PAW_PBE Te_GW 22Mar2012               :

 POSCAR: Mo Te
  positions in cartesian coordinates
 exchange correlation table for  LEXCH =        8
   RHO(1)=    0.500       N(1)  =     2000
   RHO(2)=  100.500       N(2)  =     4000

 ion  position               nearest neighbor table
   1  0.167  0.333  0.291-   5 2.73   6 2.73   5 2.73   6 2.73   5 2.73   6 2.73
   2  0.833  0.667  0.430-   7 2.73   8 2.73   7 2.73   8 2.73   7 2.73   8 2.73
   3  0.167  0.333  0.570-   9 2.73  10 2.73   9 2.73  10 2.73   9 2.73  10 2.73
   4  0.833  0.667  0.709-  11 2.73  12 2.73  11 2.73  12 2.73  11 2.73  12 2.73
   5  0.833  0.667  0.327-   1 2.73   1 2.73   1 2.73   6 3.61
   6  0.833  0.667  0.254-   1 2.73   1 2.73   1 2.73   5 3.61
   7  0.167  0.333  0.466-   2 2.73   2 2.73   2 2.73   8 3.61
   8  0.167  0.333  0.394-   2 2.73   2 2.73   2 2.73   7 3.61
   9  0.833  0.667  0.606-   3 2.73   3 2.73   3 2.73  10 3.61
  10  0.833  0.667  0.534-   3 2.73   3 2.73   3 2.73   9 3.61
  11  0.167  0.333  0.746-   4 2.73   4 2.73   4 2.73  12 3.61
  12  0.167  0.333  0.673-   4 2.73   4 2.73   4 2.73  11 3.61

  LATTYP: Found a hexagonal cell.
 ALAT       =     3.5473923118
 C/A-ratio  =    14.0948605637

  Lattice vectors:

 A1 = (   3.5473923118,   0.0000000000,   0.0000000000)
 A2 = (  -1.7736961559,   3.0721318592,   0.0000000000)
 A3 = (   0.0000000000,   0.0000000000,  50.0000000000)

Analysis of symmetry for initial positions (statically):
 Subroutine PRICEL returns:
 Original cell was already a primitive cell.

 Routine SETGRP: Setting up the symmetry group for a
 hexagonal supercell.

 Subroutine GETGRP returns: Found 12 space group operations
 (whereof  4 operations were pure point group operations)
 out of a pool of 24 trial point group operations.

The static configuration has the point symmetry C_2h.
 The point group associated with its full space group is D_3d.

Analysis of symmetry for dynamics (positions and initial velocities):
 Subroutine PRICEL returns:
 Original cell was already a primitive cell.

[...]

The dynamic configuration has the point symmetry C_2h.
 The point group associated with its full space group is D_3d.

 Subroutine INISYM returns: Found 12 space group operations
 (whereof  4 operations are pure point group operations),
 and found     1 'primitive' translations

 KPOINTS: KPOINTS created by Atomic Simulation Env

Automatic generation of k-mesh.
Space group operators:
 irot       det(A)        alpha          n_x          n_y          n_z        tau_x        tau_y        tau_z
    1     1.000000     0.000001     1.000000     0.000000     0.000000     0.000000     0.000000     0.000000
    2    -1.000000     0.000001     1.000000     0.000000     0.000000     0.000000     0.000000     0.000000
    3     1.000000   180.000000     1.000000     0.000000     0.000000     0.000000     0.000000     0.000000
    4    -1.000000   180.000000     1.000000     0.000000     0.000000     0.000000     0.000000     0.000000
    5     1.000000   120.000000     0.000000     0.000000    -1.000000     0.500000     0.500000     0.000000
    6    -1.000000   120.000000     0.000000     0.000000    -1.000000     0.500000     0.500000     0.000000
    7     1.000000   120.000000     0.000000     0.000000     1.000000     0.000000     0.500000     0.000000
    8    -1.000000   120.000000     0.000000     0.000000     1.000000     0.000000     0.500000     0.000000
    9     1.000000   180.000000     0.500000    -0.866025     0.000000     0.000000     0.500000     0.000000
   10    -1.000000   180.000000     0.500000    -0.866025     0.000000     0.000000     0.500000     0.000000
   11     1.000000   180.000000    -0.500000    -0.866025     0.000000     0.500000     0.500000     0.000000
   12    -1.000000   180.000000    -0.500000    -0.866025     0.000000     0.500000     0.500000     0.000000

 Subroutine IBZKPT returns following result:

 Found     37 irreducible k-points:

 Following reciprocal coordinates:
            Coordinates               Weight
  0.000000  0.000000  0.000000      1.000000
  0.055556  0.000000  0.000000      6.000000
  0.111111  0.000000  0.000000      6.000000
  0.166667  0.000000  0.000000      6.000000
  0.222222  0.000000  0.000000      6.000000
  0.277778  0.000000  0.000000      6.000000
  0.333333  0.000000  0.000000      6.000000
  0.388889  0.000000  0.000000      6.000000
  0.444444  0.000000  0.000000      6.000000
  0.500000  0.000000  0.000000      3.000000
  0.055556  0.055556  0.000000      6.000000
  0.111111  0.055556  0.000000     12.000000
  0.166667  0.055556  0.000000     12.000000
  0.222222  0.055556  0.000000     12.000000
  0.277778  0.055556  0.000000     12.000000
  0.333333  0.055556  0.000000     12.000000
  0.388889  0.055556  0.000000     12.000000
  0.444444  0.055556  0.000000     12.000000
  0.111111  0.111111  0.000000      6.000000
  0.166667  0.111111  0.000000     12.000000
  0.222222  0.111111  0.000000     12.000000
  0.277778  0.111111  0.000000     12.000000
  0.333333  0.111111  0.000000     12.000000
  0.388889  0.111111  0.000000     12.000000
  0.444444  0.111111  0.000000      6.000000
  0.166667  0.166667  0.000000      6.000000
  0.222222  0.166667  0.000000     12.000000
  0.277778  0.166667  0.000000     12.000000
  0.333333  0.166667  0.000000     12.000000
  0.388889  0.166667  0.000000     12.000000
  0.222222  0.222222  0.000000      6.000000
  0.277778  0.222222  0.000000     12.000000
  0.333333  0.222222  0.000000     12.000000
  0.388889  0.222222  0.000000      6.000000
  0.277778  0.277778  0.000000      6.000000
  0.333333  0.277778  0.000000     12.000000
  0.333333  0.333333  0.000000      2.000000

 Following cartesian coordinates:
            Coordinates               Weight
  0.000000  0.000000  0.000000      1.000000
  0.015661  0.009042  0.000000      6.000000
  0.031322  0.018084  0.000000      6.000000
  0.046983  0.027126  0.000000      6.000000
  0.062644  0.036167  0.000000      6.000000
  0.078305  0.045209  0.000000      6.000000
  0.093966  0.054251  0.000000      6.000000
  0.109627  0.063293  0.000000      6.000000
  0.125288  0.072335  0.000000      6.000000
  0.140949  0.081377  0.000000      3.000000
  0.015661  0.027126  0.000000      6.000000
  0.031322  0.036167  0.000000     12.000000
  0.046983  0.045209  0.000000     12.000000
  0.062644  0.054251  0.000000     12.000000
  0.078305  0.063293  0.000000     12.000000
  0.093966  0.072335  0.000000     12.000000
  0.109627  0.081377  0.000000     12.000000
  0.125288  0.090419  0.000000     12.000000
  0.031322  0.054251  0.000000      6.000000
  0.046983  0.063293  0.000000     12.000000
  0.062644  0.072335  0.000000     12.000000
  0.078305  0.081377  0.000000     12.000000
  0.093966  0.090419  0.000000     12.000000
  0.109627  0.099460  0.000000     12.000000
  0.125288  0.108502  0.000000      6.000000
  0.046983  0.081377  0.000000      6.000000
  0.062644  0.090419  0.000000     12.000000
  0.078305  0.099460  0.000000     12.000000
  0.093966  0.108502  0.000000     12.000000
  0.109627  0.117544  0.000000     12.000000
  0.062644  0.108502  0.000000      6.000000
  0.078305  0.117544  0.000000     12.000000
  0.093966  0.126586  0.000000     12.000000
  0.109627  0.135628  0.000000      6.000000
  0.078305  0.135628  0.000000      6.000000
  0.093966  0.144670  0.000000     12.000000
  0.093966  0.162753  0.000000      2.000000

 TETIRR: Found    169 inequivalent tetrahedra from     1944

 Subroutine IBZKPT_HF returns following result:

 Found    324 k-points in 1st BZ
 the following    324 k-points will be used (e.g. in the exchange kernel)
 Following reciprocal coordinates:   # in IRBZ
  0.000000  0.000000  0.000000    0.00308642   1 t-inv F
  0.055556  0.000000  0.000000    0.00308642   2 t-inv F
  0.111111  0.000000  0.000000    0.00308642   3 t-inv F
  0.166667  0.000000  0.000000    0.00308642   4 t-inv F
  0.222222  0.000000  0.000000    0.00308642   5 t-inv F
  0.277778  0.000000  0.000000    0.00308642   6 t-inv F
  0.333333  0.000000  0.000000    0.00308642   7 t-inv F
  0.388889  0.000000  0.000000    0.00308642   8 t-inv F
  0.444444  0.000000  0.000000    0.00308642   9 t-inv F
  0.500000  0.000000  0.000000    0.00308642  10 t-inv F
  0.055556  0.055556  0.000000    0.00308642  11 t-inv F
  0.111111  0.055556  0.000000    0.00308642  12 t-inv F
  0.166667  0.055556  0.000000    0.00308642  13 t-inv F
  0.222222  0.055556  0.000000    0.00308642  14 t-inv F
  0.277778  0.055556  0.000000    0.00308642  15 t-inv F
  0.333333  0.055556  0.000000    0.00308642  16 t-inv F
  0.388889  0.055556  0.000000    0.00308642  17 t-inv F
  0.444444  0.055556  0.000000    0.00308642  18 t-inv F
  0.111111  0.111111  0.000000    0.00308642  19 t-inv F
  0.166667  0.111111  0.000000    0.00308642  20 t-inv F
  0.222222  0.111111  0.000000    0.00308642  21 t-inv F
  0.277778  0.111111  0.000000    0.00308642  22 t-inv F
  0.333333  0.111111  0.000000    0.00308642  23 t-inv F
  0.388889  0.111111  0.000000    0.00308642  24 t-inv F
  0.444444  0.111111  0.000000    0.00308642  25 t-inv F
  0.166667  0.166667  0.000000    0.00308642  26 t-inv F
  0.222222  0.166667  0.000000    0.00308642  27 t-inv F
  0.277778  0.166667  0.000000    0.00308642  28 t-inv F
  0.333333  0.166667  0.000000    0.00308642  29 t-inv F
  0.388889  0.166667  0.000000    0.00308642  30 t-inv F
  0.222222  0.222222  0.000000    0.00308642  31 t-inv F
  0.277778  0.222222  0.000000    0.00308642  32 t-inv F
  0.333333  0.222222  0.000000    0.00308642  33 t-inv F
  0.388889  0.222222  0.000000    0.00308642  34 t-inv F
  0.277778  0.277778  0.000000    0.00308642  35 t-inv F
  0.333333  0.277778  0.000000    0.00308642  36 t-inv F
  0.333333  0.333333  0.000000    0.00308642  37 t-inv F
 -0.055556 -0.000000 -0.000000    0.00308642   2 t-inv F
  0.055556 -0.055556 -0.000000    0.00308642   2 t-inv F
 -0.055556  0.055556  0.000000    0.00308642   2 t-inv F
  0.000000 -0.055556  0.000000    0.00308642   2 t-inv F
 -0.000000  0.055556 -0.000000    0.00308642   2 t-inv F
 -0.111111 -0.000000 -0.000000    0.00308642   3 t-inv F
  0.111111 -0.111111 -0.000000    0.00308642   3 t-inv F
 -0.111111  0.111111  0.000000    0.00308642   3 t-inv F
  0.000000 -0.111111  0.000000    0.00308642   3 t-inv F
 -0.000000  0.111111 -0.000000    0.00308642   3 t-inv F
 -0.166667 -0.000000 -0.000000    0.00308642   4 t-inv F
  0.166667 -0.166667 -0.000000    0.00308642   4 t-inv F
 -0.166667  0.166667  0.000000    0.00308642   4 t-inv F
[...]
     3.547392312  3.547392312 50.000000000     0.325506862  0.325506862  0.020000000

 FORCES acting on ions
    electron-ion (+dipol)            ewald-force                    non-local-force                 convergence-correction
   -.366E-07 0.319E-07 0.400E+04   0.889E-11 -.503E-11 -.400E+04   0.347E-17 -.139E-16 0.933E-02   -.157E-10 0.904E-11 0.314E-06
   0.447E-07 -.189E-07 0.133E+04   -.894E-11 0.506E-11 -.133E+04   0.208E-16 0.000E+00 -.561E-03   0.239E-11 -.142E-11 -.514E-06
   -.446E-07 0.189E-07 -.133E+04   0.889E-11 -.503E-11 0.133E+04   -.104E-16 0.000E+00 0.561E-03   -.241E-11 0.141E-11 0.514E-06
   0.366E-07 -.319E-07 -.400E+04   -.894E-11 0.506E-11 0.400E+04   0.104E-16 0.139E-16 -.933E-02   0.157E-10 -.905E-11 -.314E-06
   -.164E-06 0.178E-06 0.114E+04   -.454E-11 0.258E-11 -.114E+04   -.208E-16 -.347E-16 -.513E+01   -.410E-12 0.234E-12 -.139E-05
   -.199E-06 0.526E-07 0.229E+04   -.444E-11 0.251E-11 -.229E+04   -.243E-16 -.139E-16 0.520E+01   -.958E-12 0.563E-12 0.177E-05
   0.174E-06 -.182E-07 -.469E+00   0.456E-11 -.258E-11 0.556E+01   -.347E-17 0.000E+00 -.510E+01   0.655E-12 -.376E-12 -.124E-05
   0.126E-06 -.186E-06 0.114E+04   0.456E-11 -.259E-11 -.115E+04   0.208E-16 0.486E-16 0.510E+01   0.855E-12 -.488E-12 0.438E-06
   -.126E-06 0.186E-06 -.114E+04   -.454E-11 0.258E-11 0.115E+04   -.347E-16 -.208E-16 -.510E+01   -.852E-12 0.489E-12 -.438E-06
   -.174E-06 0.182E-07 0.469E+00   -.454E-11 0.257E-11 -.556E+01   0.243E-16 0.000E+00 0.510E+01   -.653E-12 0.378E-12 0.124E-05
   0.199E-06 -.526E-07 -.229E+04   0.447E-11 -.253E-11 0.229E+04   0.382E-16 0.139E-16 -.520E+01   0.960E-12 -.562E-12 -.177E-05
   0.164E-06 -.178E-06 -.114E+04   0.456E-11 -.259E-11 0.114E+04   0.000E+00 0.347E-16 0.513E+01   0.409E-12 -.233E-12 0.139E-05
   0.137E-09 -.159E-10 0.161E-09   0.498E-14 0.148E-13 0.455E-12   0.243E-16 0.278E-16 -.888E-15   -.121E-13 -.151E-13 -.112E-10

 POSITION                                       TOTAL-FORCE (eV/Angst)
     -0.00000      1.02404     14.53000        -0.000000      0.000000      0.028700
      1.77370      2.04809     21.51000         0.000000     -0.000000      0.000808
     -0.00000      1.02404     28.49000         0.000000      0.000000     -0.000808
      1.77370      2.04809     35.47000        -0.000000      0.000000     -0.028700
      1.77370      2.04809     16.33510        -0.000000      0.000000     -0.082376
      1.77370      2.04809     12.72490         0.000000     -0.000000      0.050280
     -0.00000      1.02404     23.31510        -0.000000      0.000000     -0.102534
     -0.00000      1.02404     19.70490        -0.000000     -0.000000      0.103466
      1.77370      2.04809     30.29510         0.000000      0.000000     -0.103466
      1.77370      2.04809     26.68490         0.000000     -0.000000      0.102534
     -0.00000      1.02404     37.27510        -0.000000     -0.000000     -0.050280
     -0.00000      1.02404     33.66490        -0.000000     -0.000000      0.082376
    total drift:                                0.000000     -0.000000      0.000000

  FREE ENERGIE OF THE ION-ELECTRON SYSTEM (eV)
  free  energy   TOTEN  =       -79.18371613 eV

  energy  without entropy=      -79.18371613  energy(sigma->0) =      -79.18371613

 Linear response reoptimize wavefunctions
 Linear response G [H, r] |phi>, progress :
  Direction:   1

[...]

  free energy    TOTEN  =      -498.71737529 eV

[...]

 Linear response G [H, r] |phi>, progress :
  Direction:   2

[...]

 Linear response G [H, r] |phi>, progress :
  Direction:   3

[...]

  free energy    TOTEN  =      -548.26923969 eV

[...]

 Linear response to external field (no local field effect), progress :
  Direction:   1
  LATTYP: Found a hexagonal cell.
 ALAT       =     3.5473923118
 C/A-ratio  =    14.0948605637

[...]

The dynamic configuration has the point symmetry C_2 .

[...]

 Free energy of the ion-electron system (eV)
  -Hartree energ DENC   =         0.00000000
  -V(xc)+E(xc)   XCENC  =         0.00000000
  PAW double counting   =         0.00000000        0.00000000
  entropy T*S    EENTRO =         0.00000000
  eigenvalues    EBANDS =        -9.46978622
  free energy    TOTEN  =        -9.46978622 eV

  energy without entropy =       -9.46978622

[...]

 change of polarisation eV/A/(eV/A) component  1 :    32.743    -0.843    -0.217
 dielectric tensor                  component  1 :    11.873    -0.280    -0.072

[...]

The dynamic configuration has the point symmetry C_1h.

[...]

 Linear response to external field (no local field effect), progress :
  Direction:   3
  LATTYP: Found a hexagonal cell.
 ALAT       =     3.5473923118
 C/A-ratio  =    14.0948605637

[...]

The dynamic configuration has the point symmetry C_1h.
 The point group associated with its full space group is C_3v.

[...]

 HEAD OF MICROSCOPIC STATIC DIELECTRIC TENSOR (INDEPENDENT PARTICLE, excluding Hartree and local field effects)
          12.157538    -0.000000     0.000000
           0.000000    12.157538     0.000000
           0.000000     0.000000     7.775470

 Linear response to external field, progress :
  Direction:   1
  LATTYP: Found a hexagonal cell.
 ALAT       =     3.5473923118
 C/A-ratio  =    14.0948605637

[...]

The dynamic configuration has the point symmetry C_2 .

[...]

  Parameters of vdW forcefield:
            C6ts              R0ts           ALPHAts        RELVOL
            (au)              (au)            (au)
   Mo       1114.298          4.156         92.024          1.041
   Mo       1118.988          4.159         92.217          1.043
   Mo       1118.988          4.159         92.217          1.043
   Mo       1114.298          4.156         92.024          1.041
   Te        411.616          4.241         38.385          1.020
   Te        403.992          4.228         38.028          1.010
   Te        411.646          4.241         38.386          1.020
   Te        411.618          4.241         38.385          1.020
   Te        411.618          4.241         38.385          1.020
   Te        411.646          4.241         38.386          1.020
   Te        403.992          4.228         38.028          1.010
   Te        411.616          4.241         38.385          1.020
  Edisp (eV):   -3.96916

[...]

 PIEZOELECTRIC TENSOR FIELD DIRECTION 1  (e Angst)
     0.00187  0.00000  0.00000           ( -0.00160  0.00000  0.00000)
     0.00000  0.00271  0.00021           (  0.00000  0.00080  0.00002)
     0.00000  0.00021 -0.00255           (  0.00000  0.00002 -0.00037)

 PIEZOELECTRIC TENSOR FIELD DIRECTION 1  (C/m^2)
     0.00006  0.00000  0.00000
     0.00000  0.00008  0.00001
     0.00000  0.00001 -0.00007

      POSITION         DIRECTION 1           BORN EFFECTIVE CHARGE    (rigid.aug.   ionic)
     -0.00000      1.02404     14.53000    -3.24934 -0.00007  0.00003 (  0.16212 14.00000)
      1.77370      2.04809     21.51000    -3.22702  0.00006  0.00000 (  0.16198 14.00000)
     -0.00000      1.02404     28.49000    -3.22702 -0.00006 -0.00000 (  0.16198 14.00000)
      1.77370      2.04809     35.47000    -3.24934  0.00007 -0.00003 (  0.16212 14.00000)
      1.77370      2.04809     16.33510     1.59315 -0.00193  0.00028 (  1.18462  6.00000)
      1.77370      2.04809     12.72490     1.60198 -0.00175 -0.00012 (  1.18399  6.00000)
     -0.00000      1.02404     23.31510     1.58692  0.00196  0.00027 (  1.18459  6.00000)
     -0.00000      1.02404     19.70490     1.58877  0.00195 -0.00028 (  1.18455  6.00000)
      1.77370      2.04809     30.29510     1.58877 -0.00195  0.00028 (  1.18455  6.00000)
      1.77370      2.04809     26.68490     1.58692 -0.00196 -0.00027 (  1.18459  6.00000)
     -0.00000      1.02404     37.27510     1.60198  0.00175  0.00012 (  1.18399  6.00000)
     -0.00000      1.02404     33.66490     1.59315  0.00193 -0.00028 (  1.18462  6.00000)
    total drift (improves with k-points):  -0.21108  0.00000  0.00000

[...]

The dynamic configuration has the point symmetry C_1h.

[...]

 Linear response to external field, progress :
  Direction:   3
  LATTYP: Found a hexagonal cell.
 ALAT       =     3.5473923118
 C/A-ratio  =    14.0948605637

[...]

The dynamic configuration has the point symmetry C_1h.
 The point group associated with its full space group is C_3v.

[...]

----------------------------------------- Iteration    3(  26)  ---------------------------------------

 Broyden mixing:
  rms(total) = 0.98621E-06    rms(broyden)= 0.98597E-06
  rms(prec ) = 0.12314E-05
  weight for this iteration     100.00

 eigenvalues of (default mixing * dielectric matrix)
  average eigenvalue GAMMA=   2.1582
  8.1157  8.1157  5.5320  4.3710  3.0357  3.0357  2.2730  2.2730  1.7572  1.7572
  1.2661  1.2661  0.9499  0.9499  0.9847  0.9847  0.9702  0.6893  0.7800  0.6620
  0.5233  0.4917  0.5153  0.4967

 Free energy of the ion-electron system (eV)
  -Hartree energ DENC   =        -1.24186030
  -V(xc)+E(xc)   XCENC  =         0.01673047
  PAW double counting   =         0.03541129       -0.03489356
  entropy T*S    EENTRO =         0.00000000
  eigenvalues    EBANDS =        -0.34893398
  free energy    TOTEN  =        -1.57354608 eV

  energy without entropy =       -1.57354608

------------------------ aborting loop because EDIFF is reached ----------------------------------------

 change of polarisation eV/A/(eV/A) component  3 :    -0.013     0.005     3.087
 dielectric tensor                  component  3 :    -0.004     0.002     2.025

[...]

  Hirshfeld charges:
            ion         q(e)
      1     Mo          0.242
      2     Mo          0.241
      3     Mo          0.241
      4     Mo          0.242
      5     Te         -0.121
      6     Te         -0.121
      7     Te         -0.120
      8     Te         -0.120
      9     Te         -0.120
     10     Te         -0.120
     11     Te         -0.121
     12     Te         -0.121

  Tkatchenko/Scheffler method for vdW energy calculation

  Parameters of vdW forcefield:
            C6ts              R0ts           ALPHAts        RELVOL
            (au)              (au)            (au)
   Mo       1114.298          4.156         92.024          1.041
   Mo       1118.988          4.159         92.217          1.043
   Mo       1118.988          4.159         92.217          1.043
   Mo       1114.298          4.156         92.024          1.041
   Te        411.616          4.241         38.385          1.020
   Te        403.992          4.228         38.028          1.010
   Te        411.646          4.241         38.386          1.020
   Te        411.618          4.241         38.385          1.020
   Te        411.618          4.241         38.385          1.020
   Te        411.647          4.241         38.386          1.020
   Te        403.991          4.228         38.028          1.010
   Te        411.616          4.241         38.385          1.020
  Edisp (eV):   -3.96916

 PIEZOELECTRIC TENSOR FIELD DIRECTION 3  (e Angst)
    -0.19501  0.00000 -0.00000           ( -0.00001 -0.00000  0.00000)
     0.00000 -0.19501 -0.00000           (  0.00000 -0.00001 -0.00000)
     0.00000  0.00000 -0.29902           (  0.00000 -0.00000  0.00001)

 PIEZOELECTRIC TENSOR FIELD DIRECTION 3  (C/m^2)
    -0.00573  0.00000 -0.00000
     0.00000 -0.00573 -0.00000
     0.00000  0.00000 -0.00879

      POSITION         DIRECTION 3           BORN EFFECTIVE CHARGE    (rigid.aug.   ionic)
     -0.00000      1.02404     14.53000     0.00000 -0.00000-49.74291 (  0.16212 14.00000)
      1.77370      2.04809     21.51000    -0.00000 -0.00000 -6.07384 (  0.16198 14.00000)
     -0.00000      1.02404     28.49000     0.00000  0.00000 -6.04261 (  0.16198 14.00000)
      1.77370      2.04809     35.47000     0.00000 -0.00000-49.79163 (  0.16212 14.00000)
      1.77370      2.04809     16.33510    -0.00000  0.00000 -3.16299 (  1.18462  6.00000)
      1.77370      2.04809     12.72490     0.00000 -0.00000 -4.36969 (  1.18399  6.00000)
     -0.00000      1.02404     23.31510    -0.00000 -0.00000  0.30116 (  1.18459  6.00000)
     -0.00000      1.02404     19.70490     0.00000 -0.00000  0.89117 (  1.18455  6.00000)
      1.77370      2.04809     30.29510     0.00000 -0.00000  0.90024 (  1.18455  6.00000)
      1.77370      2.04809     26.68490     0.00000  0.00000  0.31904 (  1.18459  6.00000)
     -0.00000      1.02404     37.27510    -0.00000  0.00000 -4.36157 (  1.18399  6.00000)
     -0.00000      1.02404     33.66490    -0.00000  0.00000 -3.16186 (  1.18462  6.00000)
    total drift (improves with k-points):   0.00000 -0.00000*********

[...]

 MACROSCOPIC STATIC DIELECTRIC TENSOR (including local field effects in DFT)
          11.642935     0.000000    -0.000000
           0.000000    11.642935     0.000000
           0.000000     0.000000     2.025067

  LATTYP: Found a hexagonal cell.
 ALAT       =     3.5473923118
 C/A-ratio  =    14.0948605637

  Lattice vectors:

 A1 = (   3.5473923118,   0.0000000000,   0.0000000000)
 A2 = (  -1.7736961559,   3.0721318592,   0.0000000000)
 A3 = (   0.0000000000,   0.0000000000,  50.0000000000)

Analysis of symmetry for initial positions (statically):
 Subroutine PRICEL returns:
 Original cell was already a primitive cell.

[...]

The static configuration has the point symmetry C_2h.
 The point group associated with its full space group is D_3d.

Analysis of symmetry for dynamics (positions and initial velocities):
 Subroutine PRICEL returns:
 Original cell was already a primitive cell.

 Routine SETGRP: Setting up the symmetry group for a
 hexagonal supercell.

 Subroutine GETGRP returns: Found 12 space group operations
 (whereof  4 operations were pure point group operations)
 out of a pool of 24 trial point group operations.

The dynamic configuration has the point symmetry C_2h.
 The point group associated with its full space group is D_3d.

 Subroutine INISYM returns: Found 12 space group operations
 (whereof  4 operations are pure point group operations),
 and found     1 'primitive' translations

 MACROSCOPIC STATIC DIELECTRIC TENSOR (including local field effects in DFT)
          11.642935     0.000000    -0.000000
           0.000000    11.642935     0.000000
           0.000000     0.000000     2.025067

 PIEZOELECTRIC TENSOR  for field in x, y, z        (e  Angst)
          XX          YY          ZZ          XY          YZ          ZX
  x     0.00187     0.00271    -0.00255     0.00000     0.00021     0.00000
  y    -0.01241     0.02543     0.00109     0.00000     0.00061     0.00000
  z    -0.19501    -0.19501    -0.29902     0.00000     0.00000    -0.00000

 PIEZOELECTRIC TENSOR  for field in x, y, z        (C/m^2)
          XX          YY          ZZ          XY          YZ          ZX
  x     0.00000     0.00000     0.00000     0.00000     0.00000     0.00000
  y     0.00000     0.00000     0.00000     0.00000     0.00000     0.00000
  z     0.00000     0.00000     0.00000     0.00000     0.00000     0.00000

 BORN EFFECTIVE CHARGES (in e, cummulative output)
 ion    1
    1    -3.24934    -0.00007     0.00003
    2    -0.00000    -3.24991    -0.00022
    3     0.00000    -0.00000   -49.74291
 ion    2
    1    -3.22702     0.00006     0.00000
    2    -0.00000    -3.22636    -0.00001
    3    -0.00000    -0.00000    -6.07384
 ion    3
    1    -3.22702    -0.00006    -0.00000
    2    -0.00000    -3.22771     0.00001
    3     0.00000     0.00000    -6.04261
 ion    4
    1    -3.24934     0.00007    -0.00003
    2     0.00000    -3.24880     0.00025
    3     0.00000    -0.00000   -49.79163
 ion    5
    1     1.59315    -0.00193     0.00028
    2    -0.00000     1.59352     0.00235
    3    -0.00000     0.00000    -3.16299
 ion    6
    1     1.60198    -0.00175    -0.00012
    2    -0.00000     1.60228    -0.00127
    3     0.00000    -0.00000    -4.36969
 ion    7
    1     1.58692     0.00196     0.00027
    2    -0.00000     1.58651     0.00219
    3    -0.00000    -0.00000     0.30116
 ion    8
    1     1.58877     0.00195    -0.00028
    2     0.00000     1.58839    -0.00220
    3     0.00000    -0.00000     0.89117
 ion    9
    1     1.58877    -0.00195     0.00028
    2     0.00000     1.58916     0.00221
    3     0.00000    -0.00000     0.90024
 ion   10
    1     1.58692    -0.00196    -0.00027
    2     0.00000     1.58733    -0.00221
    3     0.00000     0.00000     0.31904
 ion   11
    1     1.60198     0.00175     0.00012
    2     0.00000     1.60169     0.00126
    3    -0.00000     0.00000    -4.36157
 ion   12
    1     1.59315     0.00193    -0.00028
    2     0.00000     1.59279    -0.00234
    3    -0.00000     0.00000    -3.16186

 writing wavefunctions
 BZINTS: Fermi energy:  2.541522;104.000000 electrons
         Band energy:***********;  BLOECHL correction:  0.000000