 vasp.5.4.1 24Jun15 (build Apr 13 2016 13:07:19) complex

 executed on           IFC91_ompi date 2019.09.13  20:17:47

 INCAR:
 POTCAR:    PAW_PBE Mo_sv_GW 05Dec2013
 POTCAR:    PAW_PBE Se_GW 20Mar2012

 POTCAR:    PAW_PBE Mo_sv_GW 05Dec2013
   VRHFIN =Mo: 4s4p5s4d

   TITEL  = PAW_PBE Mo_sv_GW 05Dec2013
   POMASS =   95.940; ZVAL   =   14.000    mass and valenz
   ENMAX  =  344.914; ENMIN  =  258.686 eV

 POTCAR:    PAW_PBE Se_GW 20Mar2012
   VRHFIN =Se: s2p4

   TITEL  = PAW_PBE Se_GW 20Mar2012
   POMASS =   78.960; ZVAL   =    6.000    mass and valenz
   ENMAX  =  211.555; ENMIN  =  158.666 eV

  PAW_PBE Mo_sv_GW 05Dec2013            :
  PAW_PBE Se_GW 20Mar2012               :

 POSCAR: Mo Se
  positions in cartesian coordinates
 exchange correlation table for  LEXCH =        8
   RHO(1)=    0.500       N(1)  =     2000
   RHO(2)=  100.500       N(2)  =     4000

 ion  position               nearest neighbor table
   1  0.167  0.333  0.371-   4 2.54   4 2.54   4 2.54   5 2.54   5 2.54   5 2.54
   2  0.833  0.667  0.500-   6 2.54   7 2.54   6 2.54   7 2.54   6 2.54   7 2.54
   3  0.167  0.333  0.629-   9 2.54   9 2.54   9 2.54   8 2.54   8 2.54   8 2.54
   4  0.833  0.667  0.404-   1 2.54   1 2.54   1 2.54
   5  0.833  0.667  0.337-   1 2.54   1 2.54   1 2.54
   6  0.167  0.333  0.533-   2 2.54   2 2.54   2 2.54
   7  0.167  0.333  0.467-   2 2.54   2 2.54   2 2.54
   8  0.833  0.667  0.663-   3 2.54   3 2.54   3 2.54
   9  0.833  0.667  0.596-   3 2.54   3 2.54   3 2.54

  LATTYP: Found a hexagonal cell.
 ALAT       =     3.3197487879
 C/A-ratio  =    15.0613806029

  Lattice vectors:

 A1 = (   3.3197487879,   0.0000000000,   0.0000000000)
 A2 = (  -1.6598743939,   2.8749867845,   0.0000000000)
 A3 = (   0.0000000000,   0.0000000000,  50.0000000000)

Analysis of symmetry for initial positions (statically):
 Subroutine PRICEL returns:
 Original cell was already a primitive cell.

 Routine SETGRP: Setting up the symmetry group for a
 hexagonal supercell.

 Subroutine GETGRP returns: Found 12 space group operations
 (whereof  4 operations were pure point group operations)
 out of a pool of 24 trial point group operations.

The static configuration has the point symmetry C_2v.
 The point group associated with its full space group is D_3h.

Analysis of symmetry for dynamics (positions and initial velocities):
 Subroutine PRICEL returns:
 Original cell was already a primitive cell.

[...]

The dynamic configuration has the point symmetry C_2v.
 The point group associated with its full space group is D_3h.

 Subroutine INISYM returns: Found 12 space group operations
 (whereof  4 operations are pure point group operations),
 and found     1 'primitive' translations

 KPOINTS: KPOINTS created by Atomic Simulation Env

Automatic generation of k-mesh.
Space group operators:
 irot       det(A)        alpha          n_x          n_y          n_z        tau_x        tau_y        tau_z
    1     1.000000     0.000000     1.000000     0.000000     0.000000     0.000000     0.000000     0.000000
    2    -1.000000   180.000000     0.000000     0.000000     1.000000     0.000000     0.000000     0.000000
    3    -1.000000   180.000000     1.000000     0.000000     0.000000     0.000000     0.000000     0.000000
    4     1.000000   180.000000     0.000000     1.000000     0.000000     0.000000     0.000000     0.000000
    5    -1.000000    60.000000     0.000000     0.000000    -1.000000     0.000000     0.500000     0.000000
    6     1.000000   120.000000     0.000000     0.000000    -1.000000     0.500000     0.500000     0.000000
    7     1.000000   120.000000     0.000000     0.000000     1.000000     0.000000     0.500000     0.000000
    8    -1.000000    60.000000     0.000000     0.000000     1.000000     0.500000     0.500000     0.000000
    9     1.000000   180.000000     0.866025    -0.500000     0.000000     0.500000     0.500000     0.000000
   10    -1.000000   180.000000     0.500000    -0.866025     0.000000     0.000000     0.500000     0.000000
   11    -1.000000   180.000000    -0.500000    -0.866025     0.000000     0.500000     0.500000     0.000000
   12     1.000000   180.000000     0.866025     0.500000     0.000000     0.000000     0.500000     0.000000

 Subroutine IBZKPT returns following result:

 Found     37 irreducible k-points:

 Following reciprocal coordinates:
            Coordinates               Weight
  0.000000  0.000000  0.000000      1.000000
  0.055556  0.000000  0.000000      6.000000
  0.111111  0.000000  0.000000      6.000000
  0.166667  0.000000  0.000000      6.000000
  0.222222  0.000000  0.000000      6.000000
  0.277778  0.000000  0.000000      6.000000
  0.333333  0.000000  0.000000      6.000000
  0.388889  0.000000  0.000000      6.000000
  0.444444  0.000000  0.000000      6.000000
  0.500000  0.000000  0.000000      3.000000
  0.055556  0.055556  0.000000      6.000000
  0.111111  0.055556  0.000000     12.000000
  0.166667  0.055556  0.000000     12.000000
  0.222222  0.055556  0.000000     12.000000
  0.277778  0.055556  0.000000     12.000000
  0.333333  0.055556  0.000000     12.000000
  0.388889  0.055556  0.000000     12.000000
  0.444444  0.055556  0.000000     12.000000
  0.111111  0.111111  0.000000      6.000000
  0.166667  0.111111  0.000000     12.000000
  0.222222  0.111111  0.000000     12.000000
  0.277778  0.111111  0.000000     12.000000
  0.333333  0.111111  0.000000     12.000000
  0.388889  0.111111  0.000000     12.000000
  0.444444  0.111111  0.000000      6.000000
  0.166667  0.166667  0.000000      6.000000
  0.222222  0.166667  0.000000     12.000000
  0.277778  0.166667  0.000000     12.000000
  0.333333  0.166667  0.000000     12.000000
  0.388889  0.166667  0.000000     12.000000
  0.222222  0.222222  0.000000      6.000000
  0.277778  0.222222  0.000000     12.000000
  0.333333  0.222222  0.000000     12.000000
  0.388889  0.222222  0.000000      6.000000
  0.277778  0.277778  0.000000      6.000000
  0.333333  0.277778  0.000000     12.000000
  0.333333  0.333333  0.000000      2.000000

 Following cartesian coordinates:
            Coordinates               Weight
  0.000000  0.000000  0.000000      1.000000
  0.016735  0.009662  0.000000      6.000000
  0.033470  0.019324  0.000000      6.000000
  0.050205  0.028986  0.000000      6.000000
  0.066939  0.038648  0.000000      6.000000
  0.083674  0.048309  0.000000      6.000000
  0.100409  0.057971  0.000000      6.000000
  0.117144  0.067633  0.000000      6.000000
  0.133879  0.077295  0.000000      6.000000
  0.150614  0.086957  0.000000      3.000000
  0.016735  0.028986  0.000000      6.000000
  0.033470  0.038648  0.000000     12.000000
  0.050205  0.048309  0.000000     12.000000
  0.066939  0.057971  0.000000     12.000000
  0.083674  0.067633  0.000000     12.000000
  0.100409  0.077295  0.000000     12.000000
  0.117144  0.086957  0.000000     12.000000
  0.133879  0.096619  0.000000     12.000000
  0.033470  0.057971  0.000000      6.000000
  0.050205  0.067633  0.000000     12.000000
  0.066939  0.077295  0.000000     12.000000
  0.083674  0.086957  0.000000     12.000000
  0.100409  0.096619  0.000000     12.000000
  0.117144  0.106281  0.000000     12.000000
  0.133879  0.115943  0.000000      6.000000
  0.050205  0.086957  0.000000      6.000000
  0.066939  0.096619  0.000000     12.000000
  0.083674  0.106281  0.000000     12.000000
  0.100409  0.115943  0.000000     12.000000
  0.117144  0.125604  0.000000     12.000000
  0.066939  0.115943  0.000000      6.000000
  0.083674  0.125604  0.000000     12.000000
  0.100409  0.135266  0.000000     12.000000
  0.117144  0.144928  0.000000      6.000000
  0.083674  0.144928  0.000000      6.000000
  0.100409  0.154590  0.000000     12.000000
  0.100409  0.173914  0.000000      2.000000

 TETIRR: Found    169 inequivalent tetrahedra from     1944

 Subroutine IBZKPT_HF returns following result:

 Found    324 k-points in 1st BZ
 the following    324 k-points will be used (e.g. in the exchange kernel)
 Following reciprocal coordinates:   # in IRBZ
  0.000000  0.000000  0.000000    0.00308642   1 t-inv F
  0.055556  0.000000  0.000000    0.00308642   2 t-inv F
  0.111111  0.000000  0.000000    0.00308642   3 t-inv F
  0.166667  0.000000  0.000000    0.00308642   4 t-inv F
  0.222222  0.000000  0.000000    0.00308642   5 t-inv F
  0.277778  0.000000  0.000000    0.00308642   6 t-inv F
  0.333333  0.000000  0.000000    0.00308642   7 t-inv F
  0.388889  0.000000  0.000000    0.00308642   8 t-inv F
  0.444444  0.000000  0.000000    0.00308642   9 t-inv F
  0.500000  0.000000  0.000000    0.00308642  10 t-inv F
  0.055556  0.055556  0.000000    0.00308642  11 t-inv F
  0.111111  0.055556  0.000000    0.00308642  12 t-inv F
  0.166667  0.055556  0.000000    0.00308642  13 t-inv F
  0.222222  0.055556  0.000000    0.00308642  14 t-inv F
  0.277778  0.055556  0.000000    0.00308642  15 t-inv F
  0.333333  0.055556  0.000000    0.00308642  16 t-inv F
  0.388889  0.055556  0.000000    0.00308642  17 t-inv F
  0.444444  0.055556  0.000000    0.00308642  18 t-inv F
  0.111111  0.111111  0.000000    0.00308642  19 t-inv F
  0.166667  0.111111  0.000000    0.00308642  20 t-inv F
  0.222222  0.111111  0.000000    0.00308642  21 t-inv F
  0.277778  0.111111  0.000000    0.00308642  22 t-inv F
  0.333333  0.111111  0.000000    0.00308642  23 t-inv F
  0.388889  0.111111  0.000000    0.00308642  24 t-inv F
  0.444444  0.111111  0.000000    0.00308642  25 t-inv F
  0.166667  0.166667  0.000000    0.00308642  26 t-inv F
  0.222222  0.166667  0.000000    0.00308642  27 t-inv F
  0.277778  0.166667  0.000000    0.00308642  28 t-inv F
  0.333333  0.166667  0.000000    0.00308642  29 t-inv F
  0.388889  0.166667  0.000000    0.00308642  30 t-inv F
  0.222222  0.222222  0.000000    0.00308642  31 t-inv F
  0.277778  0.222222  0.000000    0.00308642  32 t-inv F
  0.333333  0.222222  0.000000    0.00308642  33 t-inv F
  0.388889  0.222222  0.000000    0.00308642  34 t-inv F
  0.277778  0.277778  0.000000    0.00308642  35 t-inv F
  0.333333  0.277778  0.000000    0.00308642  36 t-inv F
  0.333333  0.333333  0.000000    0.00308642  37 t-inv F
 -0.055556  0.055556  0.000000    0.00308642   2 t-inv F
  0.000000 -0.055556 -0.000000    0.00308642   2 t-inv F
 -0.111111  0.111111  0.000000    0.00308642   3 t-inv F
  0.000000 -0.111111 -0.000000    0.00308642   3 t-inv F
 -0.166667  0.166667  0.000000    0.00308642   4 t-inv F
  0.000000 -0.166667 -0.000000    0.00308642   4 t-inv F
 -0.222222  0.222222  0.000000    0.00308642   5 t-inv F
  0.000000 -0.222222 -0.000000    0.00308642   5 t-inv F
 -0.277778  0.277778  0.000000    0.00308642   6 t-inv F
  0.000000 -0.277778 -0.000000    0.00308642   6 t-inv F
 -0.333333  0.333333  0.000000    0.00308642   7 t-inv F
  0.000000 -0.333333 -0.000000    0.00308642   7 t-inv F
 -0.388889  0.388889  0.000000    0.00308642   8 t-inv F
  0.000000 -0.388889 -0.000000    0.00308642   8 t-inv F
 -0.444444  0.444444  0.000000    0.00308642   9 t-inv F
  0.000000 -0.444444 -0.000000    0.00308642   9 t-inv F
 -0.500000  0.500000  0.000000    0.00308642  10 t-inv F
[...]
   Se        215.629          4.062         25.333          1.013
   Se        211.151          4.048         25.068          1.003
   Se        215.625          4.062         25.333          1.013
   Se        215.625          4.062         25.333          1.013
   Se        211.151          4.048         25.068          1.003
   Se        215.629          4.062         25.333          1.013

  IVDW =  20
  VDW_RADIUS =    50.000 A
  VDW_IDAMPF =  0
  VDW_S6 =     1.000
  VDW_SR =     0.940
  VDW_D =    20.000
  LVDW_EWALD = T
  Edisp (eV):   -2.59699

  FORCE on cell =-STRESS in cart. coord.  units (eV):
  Direction    XX          YY          ZZ          XY          YZ          ZX
  Alpha Z   123.67517   123.67517   123.67517
  Ewald   93423.23858 93423.23858-97448.89041    -0.00000     0.00000     0.00000
  Hartree 94896.33901 94896.33901-94133.72769    -0.00000    -0.00000    -0.00000
  E(xc)    -335.58339  -335.58339  -336.13579     0.00000     0.00000    -0.00000
  Local  ************************190112.83545    -0.00013     0.00000    -0.00000
  n-local   157.89049   156.29135   165.49872     2.83194     0.00000     0.00000
  augment   -33.44325   -33.44310   -36.03806     0.00013     0.00000     0.00000
  Kinetic  1542.13971  1552.39301  1552.97464   -37.38502    -0.00000    -0.00000
  Fock        0.00000     0.00000     0.00000     0.00000     0.00000     0.00000
  vdW        -2.67449    -2.67449    -2.67285     0.00000     0.00000    -0.00000
  Total      -3.63392    -3.63392    -2.48081     0.00000     0.00000     0.00000
  in kB     -12.20042   -12.20042    -8.32900     0.00000     0.00000     0.00000

 VOLUME and BASIS-vectors are now :
  energy-cutoff  :      344.91
  volume of cell :      477.21
      direct lattice vectors                 reciprocal lattice vectors
     3.319748788  0.000000000  0.000000000     0.301227612  0.173913843  0.000000000
    -1.659874394  2.874986784  0.000000000     0.000000000  0.347827686  0.000000000
     0.000000000  0.000000000 50.000000000     0.000000000  0.000000000  0.020000000

  length of vectors
     3.319748788  3.319748788 50.000000000     0.347827686  0.347827686  0.020000000

 FORCES acting on ions
    electron-ion (+dipol)            ewald-force                    non-local-force                 convergence-correction
   0.360E-07 0.207E-07 0.423E+04   0.105E-10 -.610E-11 -.423E+04   0.104E-16 0.000E+00 0.150E-01   0.348E-09 -.201E-09 0.120E-04
   -.250E-07 0.145E-07 0.903E-10   -.106E-10 0.610E-11 0.000E+00   0.000E+00 0.208E-16 0.000E+00   -.942E-10 0.544E-10 0.124E-13
   0.147E-09 -.414E-07 -.423E+04   0.105E-10 -.610E-11 0.423E+04   -.347E-16 0.000E+00 -.150E-01   0.348E-09 -.201E-09 -.120E-04
   0.241E-07 0.588E-07 0.103E+04   -.537E-11 0.313E-11 -.102E+04   -.139E-16 0.867E-18 -.259E+01   -.950E-12 0.558E-12 -.391E-06
   -.469E-07 0.111E-06 0.260E+04   -.525E-11 0.298E-11 -.260E+04   0.134E-16 -.390E-17 0.257E+01   0.824E-13 -.541E-13 0.333E-05
   -.715E-07 -.109E-06 -.786E+03   0.543E-11 -.313E-11 0.788E+03   0.182E-16 0.243E-16 -.258E+01   0.397E-11 -.228E-11 0.155E-05
   0.584E-07 0.116E-06 0.786E+03   0.543E-11 -.313E-11 -.788E+03   0.520E-17 -.347E-17 0.258E+01   0.395E-11 -.228E-11 -.155E-05
   -.120E-06 -.150E-07 -.260E+04   -.524E-11 0.298E-11 0.260E+04   0.130E-16 0.217E-17 -.257E+01   0.947E-13 -.614E-13 -.333E-05
   -.389E-07 -.503E-07 -.103E+04   -.538E-11 0.313E-11 0.102E+04   0.347E-17 -.867E-18 0.259E+01   -.957E-12 0.547E-12 0.391E-06
   -.184E-06 0.106E-06 0.169E-09   -.178E-13 -.129E-12 0.000E+00   0.152E-16 0.399E-16 0.888E-15   0.608E-09 -.351E-09 -.780E-11

 POSITION                                       TOTAL-FORCE (eV/Angst)
     -0.00000      0.95833     18.54000        -0.000000     -0.000000      0.056161
      1.65987      1.91666     25.00000         0.000000     -0.000000      0.000000
     -0.00000      0.95833     31.46000        -0.000000     -0.000000     -0.056161
      1.65987      1.91666     20.20903        -0.000000      0.000000     -0.079186
      1.65987      1.91666     16.87097         0.000000      0.000000      0.044247
     -0.00000      0.95833     26.66903         0.000000      0.000000     -0.095986
     -0.00000      0.95833     23.33097        -0.000000     -0.000000      0.095986
      1.65987      1.91666     33.12903         0.000000     -0.000000     -0.044247
      1.65987      1.91666     29.79097        -0.000000      0.000000      0.079186
    total drift:                               -0.000000      0.000000      0.000000

  FREE ENERGIE OF THE ION-ELECTRON SYSTEM (eV)
  free  energy   TOTEN  =       -64.82808725 eV

  energy  without entropy=      -64.82808725  energy(sigma->0) =      -64.82808725

 Linear response reoptimize wavefunctions
 Linear response G [H, r] |phi>, progress :
  Direction:   1

[...]

  free energy    TOTEN  =      -312.91584855 eV

[...]

 Linear response G [H, r] |phi>, progress :
  Direction:   2

[...]

 Linear response G [H, r] |phi>, progress :
  Direction:   3

[...]

  free energy    TOTEN  =      -347.56313804 eV

[...]

 Linear response to external field (no local field effect), progress :
  Direction:   1
  LATTYP: Found a hexagonal cell.
 ALAT       =     3.3197487879
 C/A-ratio  =    15.0613806029

[...]

The dynamic configuration has the point symmetry C_1h.

[...]

 Free energy of the ion-electron system (eV)
  -Hartree energ DENC   =         0.00000000
  -V(xc)+E(xc)   XCENC  =         0.00000000
  PAW double counting   =         0.00000000        0.00000000
  entropy T*S    EENTRO =         0.00000000
  eigenvalues    EBANDS =        -6.50758152
  free energy    TOTEN  =        -6.50758152 eV

  energy without entropy =       -6.50758152

[...]

 change of polarisation eV/A/(eV/A) component  1 :    17.024    -1.519     0.000
 dielectric tensor                  component  1 :     7.455    -0.576     0.000

[...]

The dynamic configuration has the point symmetry C_2v.

[...]

 Linear response to external field (no local field effect), progress :
  Direction:   3
  LATTYP: Found a hexagonal cell.
 ALAT       =     3.3197487879
 C/A-ratio  =    15.0613806029

[...]

The dynamic configuration has the point symmetry C_1h.
 The point group associated with its full space group is C_3v.

[...]

 HEAD OF MICROSCOPIC STATIC DIELECTRIC TENSOR (INDEPENDENT PARTICLE, excluding Hartree and local field effects)
           7.482022     0.000000     0.000000
           0.000000     7.482022     0.000000
          -0.000000     0.000000     4.784614

 Linear response to external field, progress :
  Direction:   1
  LATTYP: Found a hexagonal cell.
 ALAT       =     3.3197487879
 C/A-ratio  =    15.0613806029

[...]

The dynamic configuration has the point symmetry C_1h.

[...]

  Parameters of vdW forcefield:
            C6ts              R0ts           ALPHAts        RELVOL
            (au)              (au)            (au)
   Mo       1086.657          4.138         90.875          1.028
   Mo       1094.542          4.143         91.204          1.031
   Mo       1086.657          4.138         90.875          1.028
   Se        215.629          4.062         25.333          1.013
   Se        211.151          4.048         25.068          1.003
   Se        215.625          4.062         25.333          1.013
   Se        215.625          4.062         25.333          1.013
   Se        211.151          4.048         25.068          1.003
   Se        215.629          4.062         25.333          1.013
  Edisp (eV):   -2.59699

[...]

 PIEZOELECTRIC TENSOR FIELD DIRECTION 1  (e Angst)
    -0.00742 -1.61640  0.00000           ( -0.00004  0.00371  0.00000)
    -1.61640  0.00600  0.00000           (  0.00371  0.00014  0.00000)
     0.00000  0.00000  0.00008           (  0.00000  0.00000  0.00007)

 PIEZOELECTRIC TENSOR FIELD DIRECTION 1  (C/m^2)
    -0.00025 -0.05427  0.00000
    -0.05427  0.00020  0.00000
     0.00000  0.00000  0.00000

      POSITION         DIRECTION 1           BORN EFFECTIVE CHARGE    (rigid.aug.   ionic)
     -0.00000      0.95833     18.54000    -1.75377 -0.00065  0.00001 (  0.16873 14.00000)
      1.65987      1.91666     25.00000    -1.74326  0.00068  0.00000 (  0.16860 14.00000)
     -0.00000      0.95833     31.46000    -1.75377 -0.00065 -0.00001 (  0.16873 14.00000)
      1.65987      1.91666     20.20903     0.86447 -0.00031 -0.00026 (  1.12429  6.00000)
      1.65987      1.91666     16.87097     0.88025 -0.00034  0.00015 (  1.12264  6.00000)
     -0.00000      0.95833     26.66903     0.86728  0.00032 -0.00026 (  1.12430  6.00000)
     -0.00000      0.95833     23.33097     0.86728  0.00032  0.00026 (  1.12430  6.00000)
      1.65987      1.91666     33.12903     0.88025 -0.00034 -0.00015 (  1.12264  6.00000)
      1.65987      1.91666     29.79097     0.86447 -0.00031  0.00026 (  1.12429  6.00000)
    total drift (improves with k-points):  -0.02681 -0.00127  0.00000

[...]

The dynamic configuration has the point symmetry C_2v.

[...]

 Linear response to external field, progress :
  Direction:   3
  LATTYP: Found a hexagonal cell.
 ALAT       =     3.3197487879
 C/A-ratio  =    15.0613806029

[...]

The dynamic configuration has the point symmetry C_1h.
 The point group associated with its full space group is C_3v.

[...]

----------------------------------------- Iteration    3(  24)  ---------------------------------------

 Broyden mixing:
  rms(total) = 0.92920E-06    rms(broyden)= 0.92903E-06
  rms(prec ) = 0.10871E-05
  weight for this iteration     100.00

 eigenvalues of (default mixing * dielectric matrix)
  average eigenvalue GAMMA=   2.3225
  8.2105  8.2105  5.4351  4.3954  3.0340  3.0340  2.2878  2.2878  1.7736  1.7736
  1.4905  1.1047  0.7561  0.9997  0.9997  0.8920  0.8920  0.9168  0.9168  0.5534
  0.5592  0.5706

 Free energy of the ion-electron system (eV)
  -Hartree energ DENC   =        -0.55023344
  -V(xc)+E(xc)   XCENC  =         0.00788498
  PAW double counting   =         0.01910153       -0.01892296
  entropy T*S    EENTRO =         0.00000000
  eigenvalues    EBANDS =        -0.14167821
  free energy    TOTEN  =        -0.68384809 eV

  energy without entropy =       -0.68384809

------------------------ aborting loop because EDIFF is reached ----------------------------------------

 change of polarisation eV/A/(eV/A) component  3 :    -0.000     0.000     1.344
 dielectric tensor                  component  3 :    -0.000     0.000     1.510

[...]

  Hirshfeld charges:
            ion         q(e)
      1     Mo          0.310
      2     Mo          0.308
      3     Mo          0.310
      4     Se         -0.154
      5     Se         -0.155
      6     Se         -0.154
      7     Se         -0.154
      8     Se         -0.155
      9     Se         -0.154

  Tkatchenko/Scheffler method for vdW energy calculation

  Parameters of vdW forcefield:
            C6ts              R0ts           ALPHAts        RELVOL
            (au)              (au)            (au)
   Mo       1086.657          4.138         90.875          1.028
   Mo       1094.542          4.143         91.204          1.031
   Mo       1086.657          4.138         90.875          1.028
   Se        215.629          4.062         25.333          1.013
   Se        211.152          4.048         25.068          1.003
   Se        215.625          4.062         25.333          1.013
   Se        215.625          4.062         25.333          1.013
   Se        211.151          4.048         25.068          1.003
   Se        215.629          4.062         25.333          1.013
  Edisp (eV):   -2.59699

 PIEZOELECTRIC TENSOR FIELD DIRECTION 3  (e Angst)
    -0.00007 -0.00000 -0.00000           (  0.00000 -0.00000 -0.00000)
    -0.00000 -0.00007  0.00000           ( -0.00000  0.00000  0.00000)
    -0.00000  0.00000 -0.00007           ( -0.00000  0.00000  0.00000)

 PIEZOELECTRIC TENSOR FIELD DIRECTION 3  (C/m^2)
    -0.00000 -0.00000 -0.00000
    -0.00000 -0.00000  0.00000
    -0.00000  0.00000 -0.00000

      POSITION         DIRECTION 3           BORN EFFECTIVE CHARGE    (rigid.aug.   ionic)
     -0.00000      0.95833     18.54000    -0.00000  0.00000-20.78934 (  0.16873 14.00000)
      1.65987      1.91666     25.00000     0.00000  0.00000 -0.09873 (  0.16860 14.00000)
     -0.00000      0.95833     31.46000     0.00000  0.00000-20.78933 (  0.16873 14.00000)
      1.65987      1.91666     20.20903    -0.00000 -0.00000 -0.07759 (  1.12429  6.00000)
      1.65987      1.91666     16.87097    -0.00000 -0.00000  1.21598 (  1.12264  6.00000)
     -0.00000      0.95833     26.66903    -0.00000 -0.00000  0.09025 (  1.12430  6.00000)
     -0.00000      0.95833     23.33097     0.00000 -0.00000  0.09026 (  1.12430  6.00000)
      1.65987      1.91666     33.12903     0.00000  0.00000  1.21598 (  1.12264  6.00000)
      1.65987      1.91666     29.79097    -0.00000 -0.00000 -0.07759 (  1.12429  6.00000)
    total drift (improves with k-points):  -0.00000 -0.00000-39.22011

[...]

 MACROSCOPIC STATIC DIELECTRIC TENSOR (including local field effects in DFT)
           7.150641    -0.000000     0.000000
           0.000000     7.150641     0.000000
          -0.000000     0.000000     1.509779

  LATTYP: Found a hexagonal cell.
 ALAT       =     3.3197487879
 C/A-ratio  =    15.0613806029

  Lattice vectors:

 A1 = (   3.3197487879,   0.0000000000,   0.0000000000)
 A2 = (  -1.6598743939,   2.8749867845,   0.0000000000)
 A3 = (   0.0000000000,   0.0000000000,  50.0000000000)

Analysis of symmetry for initial positions (statically):
 Subroutine PRICEL returns:
 Original cell was already a primitive cell.

[...]

The static configuration has the point symmetry C_2v.
 The point group associated with its full space group is D_3h.

Analysis of symmetry for dynamics (positions and initial velocities):
 Subroutine PRICEL returns:
 Original cell was already a primitive cell.

 Routine SETGRP: Setting up the symmetry group for a
 hexagonal supercell.

 Subroutine GETGRP returns: Found 12 space group operations
 (whereof  4 operations were pure point group operations)
 out of a pool of 24 trial point group operations.

The dynamic configuration has the point symmetry C_2v.
 The point group associated with its full space group is D_3h.

 Subroutine INISYM returns: Found 12 space group operations
 (whereof  4 operations are pure point group operations),
 and found     1 'primitive' translations

 MACROSCOPIC STATIC DIELECTRIC TENSOR (including local field effects in DFT)
           7.150641    -0.000000     0.000000
           0.000000     7.150641     0.000000
          -0.000000     0.000000     1.509779

 PIEZOELECTRIC TENSOR  for field in x, y, z        (e  Angst)
          XX          YY          ZZ          XY          YZ          ZX
  x    -0.00742     0.00600     0.00008    -1.61640     0.00000     0.00000
  y    -1.62390     1.62770     0.00030     0.00000     0.00000     0.00000
  z    -0.00007    -0.00007    -0.00007    -0.00000     0.00000    -0.00000

 PIEZOELECTRIC TENSOR  for field in x, y, z        (C/m^2)
          XX          YY          ZZ          XY          YZ          ZX
  x     0.00000     0.00000     0.00000    -0.05443     0.00000     0.00000
  y    -0.05443     0.05443     0.00000     0.00000     0.00000     0.00000
  z     0.00000     0.00000     0.00000     0.00000     0.00000     0.00000

 BORN EFFECTIVE CHARGES (in e, cummulative output)
 ion    1
    1    -1.75377    -0.00065     0.00001
    2    -0.00000    -1.75413    -0.00003
    3    -0.00000     0.00000   -20.78934
 ion    2
    1    -1.74326     0.00068     0.00000
    2     0.00000    -1.74296     0.00000
    3     0.00000     0.00000    -0.09873
 ion    3
    1    -1.75377    -0.00065    -0.00001
    2    -0.00000    -1.75413     0.00003
    3     0.00000     0.00000   -20.78933
 ion    4
    1     0.86447    -0.00031    -0.00026
    2    -0.00000     0.86477     0.00068
    3    -0.00000    -0.00000    -0.07759
 ion    5
    1     0.88025    -0.00034     0.00015
    2     0.00000     0.88048    -0.00042
    3    -0.00000    -0.00000     1.21598
 ion    6
    1     0.86728     0.00032    -0.00026
    2     0.00000     0.86695     0.00066
    3    -0.00000    -0.00000     0.09025
 ion    7
    1     0.86728     0.00032     0.00026
    2     0.00000     0.86695    -0.00066
    3     0.00000    -0.00000     0.09026
 ion    8
    1     0.88025    -0.00034    -0.00015
    2     0.00000     0.88048     0.00042
    3     0.00000     0.00000     1.21598
 ion    9
    1     0.86447    -0.00031     0.00026
    2    -0.00000     0.86477    -0.00068
    3    -0.00000    -0.00000    -0.07759

 writing wavefunctions
 BZINTS: Fermi energy: -0.528172; 78.000000 electrons
         Band energy:***********;  BLOECHL correction:  0.000000