 vasp.5.4.1 24Jun15 (build Apr 13 2016 13:07:19) complex

 executed on           IFC91_ompi date 2019.09.13  17:47:59

 INCAR:
 POTCAR:    PAW_PBE Mo_sv_GW 05Dec2013
 POTCAR:    PAW_PBE S_GW 19Mar2012

 POTCAR:    PAW_PBE Mo_sv_GW 05Dec2013
   VRHFIN =Mo: 4s4p5s4d

   TITEL  = PAW_PBE Mo_sv_GW 05Dec2013
   POMASS =   95.940; ZVAL   =   14.000    mass and valenz
   ENMAX  =  344.914; ENMIN  =  258.686 eV

 POTCAR:    PAW_PBE S_GW 19Mar2012
   VRHFIN =S : s2p4

   TITEL  = PAW_PBE S_GW 19Mar2012
   POMASS =   32.066; ZVAL   =    6.000    mass and valenz
   ENMAX  =  258.689; ENMIN  =  194.016 eV

  PAW_PBE Mo_sv_GW 05Dec2013            :
  PAW_PBE S_GW 19Mar2012                :

 POSCAR: Mo  S
  positions in cartesian coordinates
 exchange correlation table for  LEXCH =        8
   RHO(1)=    0.500       N(1)  =     2000
   RHO(2)=  100.500       N(2)  =     4000

 ion  position               nearest neighbor table
   1  0.167  0.333  0.438-   3 2.41   4 2.41   3 2.41   4 2.41   3 2.41   4 2.41
   2  0.833  0.667  0.562-   5 2.41   6 2.41   5 2.41   6 2.41   5 2.41   6 2.41
   3  0.833  0.667  0.470-   1 2.41   1 2.41   1 2.41
   4  0.833  0.667  0.407-   1 2.41   1 2.41   1 2.41
   5  0.167  0.333  0.593-   2 2.41   2 2.41   2 2.41
   6  0.167  0.333  0.530-   2 2.41   2 2.41   2 2.41

  LATTYP: Found a hexagonal cell.
 ALAT       =     3.1840664647
 C/A-ratio  =    15.7031897903

  Lattice vectors:

 A1 = (   3.1840664647,   0.0000000000,   0.0000000000)
 A2 = (  -1.5920332323,   2.7574824458,   0.0000000000)
 A3 = (   0.0000000000,   0.0000000000,  50.0000000000)

Analysis of symmetry for initial positions (statically):
 Subroutine PRICEL returns:
 Original cell was already a primitive cell.

 Routine SETGRP: Setting up the symmetry group for a
 hexagonal supercell.

 Subroutine GETGRP returns: Found 12 space group operations
 (whereof  4 operations were pure point group operations)
 out of a pool of 24 trial point group operations.

The static configuration has the point symmetry C_2h.
 The point group associated with its full space group is D_3d.

Analysis of symmetry for dynamics (positions and initial velocities):
 Subroutine PRICEL returns:
 Original cell was already a primitive cell.

[...]

The dynamic configuration has the point symmetry C_2h.
 The point group associated with its full space group is D_3d.

 Subroutine INISYM returns: Found 12 space group operations
 (whereof  4 operations are pure point group operations),
 and found     1 'primitive' translations

 KPOINTS: KPOINTS created by Atomic Simulation Env

Automatic generation of k-mesh.
Space group operators:
 irot       det(A)        alpha          n_x          n_y          n_z        tau_x        tau_y        tau_z
    1     1.000000     0.000000     1.000000     0.000000     0.000000     0.000000     0.000000     0.000000
    2    -1.000000     0.000000     1.000000     0.000000     0.000000     0.000000     0.000000     0.000000
    3     1.000000   180.000000     1.000000     0.000000     0.000000     0.000000     0.000000     0.000000
    4    -1.000000   180.000000     1.000000     0.000000     0.000000     0.000000     0.000000     0.000000
    5     1.000000   120.000000     0.000000     0.000000    -1.000000     0.500000     0.500000     0.000000
    6    -1.000000   120.000000     0.000000     0.000000    -1.000000     0.500000     0.500000     0.000000
    7     1.000000   120.000000     0.000000     0.000000     1.000000     0.000000     0.500000     0.000000
    8    -1.000000   120.000000     0.000000     0.000000     1.000000     0.000000     0.500000     0.000000
    9     1.000000   180.000000     0.500000    -0.866025     0.000000     0.000000     0.500000     0.000000
   10    -1.000000   180.000000     0.500000    -0.866025     0.000000     0.000000     0.500000     0.000000
   11     1.000000   180.000000    -0.500000    -0.866025     0.000000     0.500000     0.500000     0.000000
   12    -1.000000   180.000000    -0.500000    -0.866025     0.000000     0.500000     0.500000     0.000000

 Subroutine IBZKPT returns following result:

 Found     37 irreducible k-points:

 Following reciprocal coordinates:
            Coordinates               Weight
  0.000000  0.000000  0.000000      1.000000
  0.055556  0.000000  0.000000      6.000000
  0.111111  0.000000  0.000000      6.000000
  0.166667  0.000000  0.000000      6.000000
  0.222222  0.000000  0.000000      6.000000
  0.277778  0.000000  0.000000      6.000000
  0.333333  0.000000  0.000000      6.000000
  0.388889  0.000000  0.000000      6.000000
  0.444444  0.000000  0.000000      6.000000
  0.500000  0.000000  0.000000      3.000000
  0.055556  0.055556  0.000000      6.000000
  0.111111  0.055556  0.000000     12.000000
  0.166667  0.055556  0.000000     12.000000
  0.222222  0.055556  0.000000     12.000000
  0.277778  0.055556  0.000000     12.000000
  0.333333  0.055556  0.000000     12.000000
  0.388889  0.055556  0.000000     12.000000
  0.444444  0.055556  0.000000     12.000000
  0.111111  0.111111  0.000000      6.000000
  0.166667  0.111111  0.000000     12.000000
  0.222222  0.111111  0.000000     12.000000
  0.277778  0.111111  0.000000     12.000000
  0.333333  0.111111  0.000000     12.000000
  0.388889  0.111111  0.000000     12.000000
  0.444444  0.111111  0.000000      6.000000
  0.166667  0.166667  0.000000      6.000000
  0.222222  0.166667  0.000000     12.000000
  0.277778  0.166667  0.000000     12.000000
  0.333333  0.166667  0.000000     12.000000
  0.388889  0.166667  0.000000     12.000000
  0.222222  0.222222  0.000000      6.000000
  0.277778  0.222222  0.000000     12.000000
  0.333333  0.222222  0.000000     12.000000
  0.388889  0.222222  0.000000      6.000000
  0.277778  0.277778  0.000000      6.000000
  0.333333  0.277778  0.000000     12.000000
  0.333333  0.333333  0.000000      2.000000

 Following cartesian coordinates:
            Coordinates               Weight
  0.000000  0.000000  0.000000      1.000000
  0.017448  0.010074  0.000000      6.000000
  0.034896  0.020147  0.000000      6.000000
  0.052344  0.030221  0.000000      6.000000
  0.069792  0.040294  0.000000      6.000000
  0.087240  0.050368  0.000000      6.000000
  0.104688  0.060442  0.000000      6.000000
  0.122136  0.070515  0.000000      6.000000
  0.139584  0.080589  0.000000      6.000000
  0.157032  0.090662  0.000000      3.000000
  0.017448  0.030221  0.000000      6.000000
  0.034896  0.040294  0.000000     12.000000
  0.052344  0.050368  0.000000     12.000000
  0.069792  0.060442  0.000000     12.000000
  0.087240  0.070515  0.000000     12.000000
  0.104688  0.080589  0.000000     12.000000
  0.122136  0.090662  0.000000     12.000000
  0.139584  0.100736  0.000000     12.000000
  0.034896  0.060442  0.000000      6.000000
  0.052344  0.070515  0.000000     12.000000
  0.069792  0.080589  0.000000     12.000000
  0.087240  0.090662  0.000000     12.000000
  0.104688  0.100736  0.000000     12.000000
  0.122136  0.110810  0.000000     12.000000
  0.139584  0.120883  0.000000      6.000000
  0.052344  0.090662  0.000000      6.000000
  0.069792  0.100736  0.000000     12.000000
  0.087240  0.110810  0.000000     12.000000
  0.104688  0.120883  0.000000     12.000000
  0.122136  0.130957  0.000000     12.000000
  0.069792  0.120883  0.000000      6.000000
  0.087240  0.130957  0.000000     12.000000
  0.104688  0.141030  0.000000     12.000000
  0.122136  0.151104  0.000000      6.000000
  0.087240  0.151104  0.000000      6.000000
  0.104688  0.161178  0.000000     12.000000
  0.104688  0.181325  0.000000      2.000000

 TETIRR: Found    169 inequivalent tetrahedra from     1944

 Subroutine IBZKPT_HF returns following result:

 Found    324 k-points in 1st BZ
 the following    324 k-points will be used (e.g. in the exchange kernel)
 Following reciprocal coordinates:   # in IRBZ
  0.000000  0.000000  0.000000    0.00308642   1 t-inv F
  0.055556  0.000000  0.000000    0.00308642   2 t-inv F
  0.111111  0.000000  0.000000    0.00308642   3 t-inv F
  0.166667  0.000000  0.000000    0.00308642   4 t-inv F
  0.222222  0.000000  0.000000    0.00308642   5 t-inv F
  0.277778  0.000000  0.000000    0.00308642   6 t-inv F
  0.333333  0.000000  0.000000    0.00308642   7 t-inv F
  0.388889  0.000000  0.000000    0.00308642   8 t-inv F
  0.444444  0.000000  0.000000    0.00308642   9 t-inv F
  0.500000  0.000000  0.000000    0.00308642  10 t-inv F
  0.055556  0.055556  0.000000    0.00308642  11 t-inv F
  0.111111  0.055556  0.000000    0.00308642  12 t-inv F
  0.166667  0.055556  0.000000    0.00308642  13 t-inv F
  0.222222  0.055556  0.000000    0.00308642  14 t-inv F
  0.277778  0.055556  0.000000    0.00308642  15 t-inv F
  0.333333  0.055556  0.000000    0.00308642  16 t-inv F
  0.388889  0.055556  0.000000    0.00308642  17 t-inv F
  0.444444  0.055556  0.000000    0.00308642  18 t-inv F
  0.111111  0.111111  0.000000    0.00308642  19 t-inv F
  0.166667  0.111111  0.000000    0.00308642  20 t-inv F
  0.222222  0.111111  0.000000    0.00308642  21 t-inv F
  0.277778  0.111111  0.000000    0.00308642  22 t-inv F
  0.333333  0.111111  0.000000    0.00308642  23 t-inv F
  0.388889  0.111111  0.000000    0.00308642  24 t-inv F
  0.444444  0.111111  0.000000    0.00308642  25 t-inv F
  0.166667  0.166667  0.000000    0.00308642  26 t-inv F
  0.222222  0.166667  0.000000    0.00308642  27 t-inv F
  0.277778  0.166667  0.000000    0.00308642  28 t-inv F
  0.333333  0.166667  0.000000    0.00308642  29 t-inv F
  0.388889  0.166667  0.000000    0.00308642  30 t-inv F
  0.222222  0.222222  0.000000    0.00308642  31 t-inv F
  0.277778  0.222222  0.000000    0.00308642  32 t-inv F
  0.333333  0.222222  0.000000    0.00308642  33 t-inv F
  0.388889  0.222222  0.000000    0.00308642  34 t-inv F
  0.277778  0.277778  0.000000    0.00308642  35 t-inv F
  0.333333  0.277778  0.000000    0.00308642  36 t-inv F
  0.333333  0.333333  0.000000    0.00308642  37 t-inv F
 -0.055556 -0.000000 -0.000000    0.00308642   2 t-inv F
  0.055556 -0.055556 -0.000000    0.00308642   2 t-inv F
 -0.055556  0.055556  0.000000    0.00308642   2 t-inv F
  0.000000 -0.055556  0.000000    0.00308642   2 t-inv F
 -0.000000  0.055556 -0.000000    0.00308642   2 t-inv F
 -0.111111 -0.000000 -0.000000    0.00308642   3 t-inv F
  0.111111 -0.111111 -0.000000    0.00308642   3 t-inv F
 -0.111111  0.111111  0.000000    0.00308642   3 t-inv F
  0.000000 -0.111111  0.000000    0.00308642   3 t-inv F
 -0.000000  0.111111 -0.000000    0.00308642   3 t-inv F
 -0.166667 -0.000000 -0.000000    0.00308642   4 t-inv F
  0.166667 -0.166667 -0.000000    0.00308642   4 t-inv F
 -0.166667  0.166667  0.000000    0.00308642   4 t-inv F
  0.000000 -0.166667  0.000000    0.00308642   4 t-inv F
 -0.000000  0.166667 -0.000000    0.00308642   4 t-inv F
 -0.222222 -0.000000 -0.000000    0.00308642   5 t-inv F
  0.222222 -0.222222 -0.000000    0.00308642   5 t-inv F
 -0.222222  0.222222  0.000000    0.00308642   5 t-inv F
  0.000000 -0.222222  0.000000    0.00308642   5 t-inv F
 -0.000000  0.222222 -0.000000    0.00308642   5 t-inv F
[...]
     27      -1.1695      0.00000
     28      -1.1695      0.00000
     29      -0.0605      0.00000
     30       0.4533      0.00000
     31       0.6702      0.00000
     32       0.6702      0.00000
     33       1.9762      0.00000
     34       1.9762      0.00000
     35       3.9789      0.00000
     36       4.8473      0.00000
     37       4.8688      0.00000
     38       4.8688      0.00000
     39       6.8024      0.00000
     40       6.8024      0.00000
     41       8.0863      0.00000
     42       8.0863      0.00000
     43       8.3103      0.00000
     44       8.6005      0.00000
     45       8.6508      0.00000
     46       8.7756      0.00000
     47       9.0388      0.00000
     48       9.2932      0.00000
     49       9.2932      0.00000
     50       9.6343      0.00000
     51       9.6345      0.00000
     52       9.6612      0.00000
     53       9.7387      0.00000
     54       9.7458      0.00000
     55       9.7460      0.00000
     56       9.7617      0.00000

 soft charge-density along one line, spin component           1
         0         1         2         3         4         5         6         7         8         9
 total charge-density along one line

------------------------ aborting loop because EDIFF is reached ----------------------------------------

  Hirshfeld charges:
            ion         q(e)
      1     Mo          0.374
      2     Mo          0.374
      3     S          -0.186
      4     S          -0.187
      5     S          -0.187
      6     S          -0.186

  Atomic reference data used in the T-S method for vdW correction:
            C6at              R0at           ALPHAat      REFSTATE
            (au)              (au)            (au)
   Mo       1028.730          4.101         88.420         0
   S         134.000          3.855         19.600         0

  Tkatchenko/Scheffler method for vdW energy calculation

  Parameters of vdW forcefield:
            C6ts              R0ts           ALPHAts        RELVOL
            (au)              (au)            (au)
   Mo       1059.766          4.121         89.744          1.015
   Mo       1059.766          4.121         89.744          1.015
   S         136.628          3.868         19.791          1.010
   S         133.851          3.854         19.589          0.999
   S         133.851          3.854         19.589          0.999
   S         136.628          3.868         19.791          1.010

  IVDW =  20
  VDW_RADIUS =    50.000 A
  VDW_IDAMPF =  0
  VDW_S6 =     1.000
  VDW_SR =     0.940
  VDW_D =    20.000
  LVDW_EWALD = T
  Edisp (eV):   -1.55026

  FORCE on cell =-STRESS in cart. coord.  units (eV):
  Direction    XX          YY          ZZ          XY          YZ          ZX
  Alpha Z    43.56001    43.56001    43.56001
  Ewald   69010.53983 69010.53983-71822.68927    -0.00000     0.00000    -0.00000
  Hartree 69852.74958 69852.74958-69375.48322    -0.00000    -0.00000    -0.00000
  E(xc)    -221.71483  -221.71483  -222.04391    -0.00000    -0.00000     0.00000
  Local  ************************140130.41149    -0.00002     0.00000    -0.00000
  n-local   255.64536   255.74681   261.75548    -0.35234     0.01581    -0.06767
  augment   -84.07896   -84.07893   -86.15591     0.00003     0.00000    -0.00000
  Kinetic  1057.95814  1063.93472  1070.39301   -27.22207     0.04070     0.46594
  Fock        0.00000     0.00000     0.00000     0.00000     0.00000     0.00000
  vdW        -1.63384    -1.63384    -1.32274     0.00000    -0.00000    -0.00000
  Total      -2.30982    -2.30982    -1.57506     0.00000     0.00000     0.00000
  in kB      -8.42994    -8.42994    -5.74836     0.00000     0.00000     0.00000

 VOLUME and BASIS-vectors are now :
  energy-cutoff  :      344.91
  volume of cell :      439.00
      direct lattice vectors                 reciprocal lattice vectors
     3.184066465  0.000000000  0.000000000     0.314063796  0.181324817  0.000000000
    -1.592033232  2.757482446  0.000000000     0.000000000  0.362649634  0.000000000
     0.000000000  0.000000000 50.000000000     0.000000000  0.000000000  0.020000000

  length of vectors
     3.184066465  3.184066465 50.000000000     0.362649634  0.362649634  0.020000000

 FORCES acting on ions
    electron-ion (+dipol)            ewald-force                    non-local-force                 convergence-correction
   0.201E-07 -.296E-08 0.283E+04   0.123E-10 -.701E-11 -.283E+04   0.694E-17 -.139E-16 0.153E-01   -.319E-09 0.184E-09 -.769E-05
   -.200E-07 0.291E-08 -.283E+04   -.122E-10 0.709E-11 0.283E+04   0.139E-16 0.139E-16 -.153E-01   0.319E-09 -.184E-09 0.769E-05
   -.186E-06 0.938E-07 0.247E+03   -.628E-11 0.361E-11 -.239E+03   0.278E-16 0.000E+00 -.775E+01   -.131E-10 0.755E-11 0.442E-05
   -.199E-06 0.971E-08 0.218E+04   -.608E-11 0.349E-11 -.218E+04   -.208E-16 0.833E-16 0.772E+01   -.133E-10 0.764E-11 -.192E-05
   0.199E-06 -.972E-08 -.218E+04   0.608E-11 -.352E-11 0.218E+04   0.763E-16 -.833E-16 -.772E+01   0.133E-10 -.764E-11 0.192E-05
   0.186E-06 -.938E-07 -.247E+03   0.629E-11 -.358E-11 0.239E+03   0.278E-16 0.000E+00 0.775E+01   0.131E-10 -.755E-11 -.442E-05
   0.167E-09 -.648E-10 0.104E-09   0.314E-13 0.766E-13 0.398E-12   0.132E-15 0.000E+00 0.000E+00   0.514E-14 0.148E-14 -.113E-11

 POSITION                                       TOTAL-FORCE (eV/Angst)
     -0.00000      0.91916     21.92500        -0.000000      0.000000      0.080660
      1.59203      1.83832     28.07500        -0.000000     -0.000000     -0.080660
      1.59203      1.83832     23.48856         0.000000      0.000000     -0.094313
      1.59203      1.83832     20.36144        -0.000000      0.000000      0.042426
     -0.00000      0.91916     29.63856        -0.000000     -0.000000     -0.042426
     -0.00000      0.91916     26.51144         0.000000     -0.000000      0.094313
    total drift:                                0.000000     -0.000000      0.000000

  FREE ENERGIE OF THE ION-ELECTRON SYSTEM (eV)
  free  energy   TOTEN  =       -46.70789547 eV

  energy  without entropy=      -46.70789547  energy(sigma->0) =      -46.70789547

 Linear response reoptimize wavefunctions
 Linear response G [H, r] |phi>, progress :
  Direction:   1

[...]

  free energy    TOTEN  =      -201.26865305 eV

[...]

 Linear response G [H, r] |phi>, progress :
  Direction:   2

[...]

 Linear response G [H, r] |phi>, progress :
  Direction:   3

[...]

  free energy    TOTEN  =      -217.47680543 eV

[...]

 Linear response to external field (no local field effect), progress :
  Direction:   1
  LATTYP: Found a hexagonal cell.
 ALAT       =     3.1840664647
 C/A-ratio  =    15.7031897903

[...]

The dynamic configuration has the point symmetry C_2 .

[...]

 Free energy of the ion-electron system (eV)
  -Hartree energ DENC   =         0.00000000
  -V(xc)+E(xc)   XCENC  =         0.00000000
  PAW double counting   =         0.00000000        0.00000000
  entropy T*S    EENTRO =         0.00000000
  eigenvalues    EBANDS =        -3.63182999
  free energy    TOTEN  =        -3.63182999 eV

  energy without entropy =       -3.63182999

[...]

 change of polarisation eV/A/(eV/A) component  1 :     9.111    -0.995    -0.068
 dielectric tensor                  component  1 :     4.756    -0.410    -0.028

[...]

The dynamic configuration has the point symmetry C_1h.

[...]

 Linear response to external field (no local field effect), progress :
  Direction:   3
  LATTYP: Found a hexagonal cell.
 ALAT       =     3.1840664647
 C/A-ratio  =    15.7031897903

[...]

The dynamic configuration has the point symmetry C_1h.
 The point group associated with its full space group is C_3v.

[...]

 HEAD OF MICROSCOPIC STATIC DIELECTRIC TENSOR (INDEPENDENT PARTICLE, excluding Hartree and local field effects)
           4.729736     0.000000     0.000000
           0.000000     4.729736     0.000000
           0.000000     0.000000     3.000239

 Linear response to external field, progress :
  Direction:   1
  LATTYP: Found a hexagonal cell.
 ALAT       =     3.1840664647
 C/A-ratio  =    15.7031897903

[...]

The dynamic configuration has the point symmetry C_2 .

[...]

  Parameters of vdW forcefield:
            C6ts              R0ts           ALPHAts        RELVOL
            (au)              (au)            (au)
   Mo       1059.766          4.121         89.744          1.015
   Mo       1059.766          4.121         89.744          1.015
   S         136.628          3.868         19.791          1.010
   S         133.851          3.854         19.589          0.999
   S         133.851          3.854         19.589          0.999
   S         136.628          3.868         19.791          1.010
  Edisp (eV):   -1.55026

[...]

 PIEZOELECTRIC TENSOR FIELD DIRECTION 1  (e Angst)
    -0.00379  0.00000  0.00000           ( -0.00047  0.00000  0.00000)
     0.00000  0.00453  0.00016           (  0.00000  0.00030  0.00001)
     0.00000  0.00016 -0.00045           (  0.00000  0.00001 -0.00010)

 PIEZOELECTRIC TENSOR FIELD DIRECTION 1  (C/m^2)
    -0.00014  0.00000  0.00000
     0.00000  0.00017  0.00001
     0.00000  0.00001 -0.00002

      POSITION         DIRECTION 1           BORN EFFECTIVE CHARGE    (rigid.aug.   ionic)
     -0.00000      0.91916     21.92500    -1.00379 -0.00019  0.00003 (  0.17439 14.00000)
      1.59203      1.83832     28.07500    -1.00379  0.00019 -0.00003 (  0.17439 14.00000)
      1.59203      1.83832     23.48856     0.47824 -0.00146  0.00015 (  0.66110  6.00000)
      1.59203      1.83832     20.36144     0.50105 -0.00140 -0.00008 (  0.66041  6.00000)
     -0.00000      0.91916     29.63856     0.50105  0.00140  0.00008 (  0.66041  6.00000)
     -0.00000      0.91916     26.51144     0.47824  0.00146 -0.00015 (  0.66110  6.00000)
    total drift (improves with k-points):  -0.04900  0.00000  0.00000

[...]

The dynamic configuration has the point symmetry C_1h.

[...]

 Linear response to external field, progress :
  Direction:   3
  LATTYP: Found a hexagonal cell.
 ALAT       =     3.1840664647
 C/A-ratio  =    15.7031897903

[...]

The dynamic configuration has the point symmetry C_1h.
 The point group associated with its full space group is C_3v.

[...]

----------------------------------------- Iteration    3(  23)  ---------------------------------------

 Broyden mixing:
  rms(total) = 0.59828E-06    rms(broyden)= 0.59810E-06
  rms(prec ) = 0.65775E-06
  weight for this iteration     100.00

 eigenvalues of (default mixing * dielectric matrix)
  average eigenvalue GAMMA=   2.4470
  9.0963  7.7712  5.6119  4.2610  3.0886  3.0886  2.2840  2.2840  1.9962  1.6798
  1.3004  1.3004  1.1428  0.9877  0.9877  0.9784  0.9127  0.5746  0.7387  0.7227
  0.5803

 Free energy of the ion-electron system (eV)
  -Hartree energ DENC   =        -0.25691988
  -V(xc)+E(xc)   XCENC  =         0.00340147
  PAW double counting   =         0.00756320       -0.00757334
  entropy T*S    EENTRO =         0.00000000
  eigenvalues    EBANDS =        -0.06711866
  free energy    TOTEN  =        -0.32064721 eV

  energy without entropy =       -0.32064721

------------------------ aborting loop because EDIFF is reached ----------------------------------------

 change of polarisation eV/A/(eV/A) component  3 :    -0.007     0.002     0.629
 dielectric tensor                  component  3 :    -0.003     0.001     1.259

[...]

  Hirshfeld charges:
            ion         q(e)
      1     Mo          0.374
      2     Mo          0.374
      3     S          -0.186
      4     S          -0.187
      5     S          -0.187
      6     S          -0.186

  Tkatchenko/Scheffler method for vdW energy calculation

  Parameters of vdW forcefield:
            C6ts              R0ts           ALPHAts        RELVOL
            (au)              (au)            (au)
   Mo       1059.766          4.121         89.744          1.015
   Mo       1059.766          4.121         89.744          1.015
   S         136.628          3.868         19.791          1.010
   S         133.851          3.854         19.589          0.999
   S         133.851          3.854         19.589          0.999
   S         136.628          3.868         19.791          1.010
  Edisp (eV):   -1.55026

 PIEZOELECTRIC TENSOR FIELD DIRECTION 3  (e Angst)
     0.00127  0.00000  0.00000           ( -0.00000  0.00000  0.00000)
     0.00000  0.00127  0.00000           (  0.00000 -0.00000  0.00000)
    -0.00000  0.00000 -0.00325           (  0.00000  0.00000  0.00001)

 PIEZOELECTRIC TENSOR FIELD DIRECTION 3  (C/m^2)
     0.00005  0.00000  0.00000
     0.00000  0.00005  0.00000
    -0.00000  0.00000 -0.00012

      POSITION         DIRECTION 3           BORN EFFECTIVE CHARGE    (rigid.aug.   ionic)
     -0.00000      0.91916     21.92500    -0.00000 -0.00000 -4.69495 (  0.17439 14.00000)
      1.59203      1.83832     28.07500     0.00000 -0.00000 -4.69516 (  0.17439 14.00000)
      1.59203      1.83832     23.48856     0.00000  0.00000  0.05121 (  0.66110  6.00000)
      1.59203      1.83832     20.36144    -0.00000 -0.00000  0.16482 (  0.66041  6.00000)
     -0.00000      0.91916     29.63856     0.00000 -0.00000  0.15935 (  0.66041  6.00000)
     -0.00000      0.91916     26.51144    -0.00000  0.00000  0.04129 (  0.66110  6.00000)
    total drift (improves with k-points):   0.00000 -0.00000 -8.97344

[...]

 MACROSCOPIC STATIC DIELECTRIC TENSOR (including local field effects in DFT)
           4.516480     0.000000     0.000000
          -0.000000     4.516480    -0.000000
          -0.000000     0.000000     1.259187

  LATTYP: Found a hexagonal cell.
 ALAT       =     3.1840664647
 C/A-ratio  =    15.7031897903

  Lattice vectors:

 A1 = (   3.1840664647,   0.0000000000,   0.0000000000)
 A2 = (  -1.5920332323,   2.7574824458,   0.0000000000)
 A3 = (   0.0000000000,   0.0000000000,  50.0000000000)

Analysis of symmetry for initial positions (statically):
 Subroutine PRICEL returns:
 Original cell was already a primitive cell.

[...]

The static configuration has the point symmetry C_2h.
 The point group associated with its full space group is D_3d.

Analysis of symmetry for dynamics (positions and initial velocities):
 Subroutine PRICEL returns:
 Original cell was already a primitive cell.

 Routine SETGRP: Setting up the symmetry group for a
 hexagonal supercell.

 Subroutine GETGRP returns: Found 12 space group operations
 (whereof  4 operations were pure point group operations)
 out of a pool of 24 trial point group operations.

The dynamic configuration has the point symmetry C_2h.
 The point group associated with its full space group is D_3d.

 Subroutine INISYM returns: Found 12 space group operations
 (whereof  4 operations are pure point group operations),
 and found     1 'primitive' translations

 MACROSCOPIC STATIC DIELECTRIC TENSOR (including local field effects in DFT)
           4.516480     0.000000     0.000000
          -0.000000     4.516480    -0.000000
          -0.000000     0.000000     1.259187

 PIEZOELECTRIC TENSOR  for field in x, y, z        (e  Angst)
          XX          YY          ZZ          XY          YZ          ZX
  x    -0.00379     0.00453    -0.00045     0.00000     0.00016     0.00000
  y    -0.00433     0.00759    -0.00007     0.00000     0.00014     0.00000
  z     0.00127     0.00127    -0.00325     0.00000     0.00000     0.00000

 PIEZOELECTRIC TENSOR  for field in x, y, z        (C/m^2)
          XX          YY          ZZ          XY          YZ          ZX
  x     0.00000     0.00000     0.00000     0.00000     0.00000     0.00000
  y     0.00000     0.00000     0.00000     0.00000     0.00000     0.00000
  z     0.00000     0.00000     0.00000     0.00000     0.00000     0.00000

 BORN EFFECTIVE CHARGES (in e, cummulative output)
 ion    1
    1    -1.00379    -0.00019     0.00003
    2     0.00000    -1.00443     0.00001
    3    -0.00000    -0.00000    -4.69495
 ion    2
    1    -1.00379     0.00019    -0.00003
    2     0.00000    -1.00315    -0.00000
    3     0.00000    -0.00000    -4.69516
 ion    3
    1     0.47824    -0.00146     0.00015
    2    -0.00000     0.47865     0.00085
    3     0.00000     0.00000     0.05121
 ion    4
    1     0.50105    -0.00140    -0.00008
    2    -0.00000     0.50143    -0.00057
    3    -0.00000    -0.00000     0.16482
 ion    5
    1     0.50105     0.00140     0.00008
    2    -0.00000     0.50067     0.00057
    3     0.00000    -0.00000     0.15935
 ion    6
    1     0.47824     0.00146    -0.00015
    2     0.00000     0.47783    -0.00085
    3    -0.00000     0.00000     0.04129

 writing wavefunctions
 BZINTS: Fermi energy: -2.326173; 52.000000 electrons
         Band energy:-991.175046;  BLOECHL correction:  0.000000