 vasp.5.4.1 24Jun15 (build Apr 13 2016 13:07:19) complex

 executed on           IFC91_ompi date 2019.09.14  03:50:43

 INCAR:
 POTCAR:    PAW_PBE W_sv_GW 23Mar2010
 POTCAR:    PAW_PBE Te_GW 22Mar2012

 POTCAR:    PAW_PBE W_sv_GW 23Mar2010
   VRHFIN =W: 5p6s5d

   TITEL  = PAW_PBE W_sv_GW 23Mar2010
   POMASS =  183.850; ZVAL   =   14.000    mass and valenz
   ENMAX  =  317.132; ENMIN  =  237.849 eV

 POTCAR:    PAW_PBE Te_GW 22Mar2012
   VRHFIN =Te: s2p4

   TITEL  = PAW_PBE Te_GW 22Mar2012
   POMASS =  127.600; ZVAL   =    6.000    mass and valenz
   ENMAX  =  174.982; ENMIN  =  131.236 eV

  PAW_PBE W_sv_GW 23Mar2010             :
  PAW_PBE Te_GW 22Mar2012               :

 POSCAR:  W Te
  positions in cartesian coordinates
 exchange correlation table for  LEXCH =        8
   RHO(1)=    0.500       N(1)  =     2000
   RHO(2)=  100.500       N(2)  =     4000

 ion  position               nearest neighbor table
   1  0.167  0.333  0.147-   7 2.74   8 2.74   7 2.74   8 2.74   7 2.74   8 2.74
   2  0.833  0.667  0.288-   9 2.74   9 2.74   9 2.74  10 2.74  10 2.74  10 2.74
   3  0.167  0.333  0.429-  11 2.74  12 2.74  11 2.74  12 2.74  11 2.74  12 2.74
   4  0.833  0.667  0.571-  13 2.74  14 2.74  13 2.74  14 2.74  13 2.74  14 2.74
   5  0.167  0.333  0.712-  16 2.74  16 2.74  16 2.74  15 2.74  15 2.74  15 2.74
   6  0.833  0.667  0.853-  17 2.74  18 2.74  17 2.74  18 2.74  17 2.74  18 2.74
   7  0.833  0.667  0.183-   1 2.74   1 2.74   1 2.74   8 3.62
   8  0.833  0.667  0.111-   1 2.74   1 2.74   1 2.74   7 3.62
   9  0.167  0.333  0.324-   2 2.74   2 2.74   2 2.74  10 3.62
  10  0.167  0.333  0.252-   2 2.74   2 2.74   2 2.74   9 3.62
  11  0.833  0.667  0.466-   3 2.74   3 2.74   3 2.74  12 3.62
  12  0.833  0.667  0.393-   3 2.74   3 2.74   3 2.74  11 3.62
  13  0.167  0.333  0.607-   4 2.74   4 2.74   4 2.74  14 3.62
  14  0.167  0.333  0.534-   4 2.74   4 2.74   4 2.74  13 3.62
  15  0.833  0.667  0.748-   5 2.74   5 2.74   5 2.74  16 3.62
  16  0.833  0.667  0.676-   5 2.74   5 2.74   5 2.74  15 3.62
  17  0.167  0.333  0.889-   6 2.74   6 2.74   6 2.74  18 3.62
  18  0.167  0.333  0.817-   6 2.74   6 2.74   6 2.74  17 3.62

  LATTYP: Found a hexagonal cell.
 ALAT       =     3.5500762221
 C/A-ratio  =    14.0842046402

  Lattice vectors:

 A1 = (   3.5500762221,   0.0000000000,   0.0000000000)
 A2 = (  -1.7750381110,   3.0744561937,   0.0000000000)
 A3 = (   0.0000000000,   0.0000000000,  50.0000000000)

Analysis of symmetry for initial positions (statically):
 Subroutine PRICEL returns:
 Original cell was already a primitive cell.

 Routine SETGRP: Setting up the symmetry group for a
 hexagonal supercell.

 Subroutine GETGRP returns: Found 12 space group operations
 (whereof  4 operations were pure point group operations)
 out of a pool of 24 trial point group operations.

The static configuration has the point symmetry C_2h.
 The point group associated with its full space group is D_3d.

Analysis of symmetry for dynamics (positions and initial velocities):
 Subroutine PRICEL returns:
 Original cell was already a primitive cell.

[...]

The dynamic configuration has the point symmetry C_2h.
 The point group associated with its full space group is D_3d.

 Subroutine INISYM returns: Found 12 space group operations
 (whereof  4 operations are pure point group operations),
 and found     1 'primitive' translations

 KPOINTS: KPOINTS created by Atomic Simulation Env

Automatic generation of k-mesh.
Space group operators:
 irot       det(A)        alpha          n_x          n_y          n_z        tau_x        tau_y        tau_z
    1     1.000000     0.000001     1.000000     0.000000     0.000000     0.000000     0.000000     0.000000
    2    -1.000000     0.000001     1.000000     0.000000     0.000000     0.000000     0.000000     0.000000
    3     1.000000   179.999999     1.000000     0.000000     0.000000     0.000000     0.000000     0.000000
    4    -1.000000   179.999999     1.000000     0.000000     0.000000     0.000000     0.000000     0.000000
    5     1.000000   120.000000     0.000000     0.000000    -1.000000     0.500000     0.500000     0.000000
    6    -1.000000   120.000000     0.000000     0.000000    -1.000000     0.500000     0.500000     0.000000
    7     1.000000   120.000000     0.000000     0.000000     1.000000     0.000000     0.500000     0.000000
    8    -1.000000   120.000000     0.000000     0.000000     1.000000     0.000000     0.500000     0.000000
    9     1.000000   180.000000     0.500000    -0.866025     0.000000     0.000000     0.500000     0.000000
   10    -1.000000   180.000000     0.500000    -0.866025     0.000000     0.000000     0.500000     0.000000
   11     1.000000   180.000000    -0.500000    -0.866025     0.000000     0.500000     0.500000     0.000000
   12    -1.000000   180.000000    -0.500000    -0.866025     0.000000     0.500000     0.500000     0.000000

 Subroutine IBZKPT returns following result:

 Found     37 irreducible k-points:

 Following reciprocal coordinates:
            Coordinates               Weight
  0.000000  0.000000  0.000000      1.000000
  0.055556  0.000000  0.000000      6.000000
  0.111111  0.000000  0.000000      6.000000
  0.166667  0.000000  0.000000      6.000000
  0.222222  0.000000  0.000000      6.000000
  0.277778  0.000000  0.000000      6.000000
  0.333333  0.000000  0.000000      6.000000
  0.388889  0.000000  0.000000      6.000000
  0.444444  0.000000  0.000000      6.000000
  0.500000  0.000000  0.000000      3.000000
  0.055556  0.055556  0.000000      6.000000
  0.111111  0.055556  0.000000     12.000000
  0.166667  0.055556  0.000000     12.000000
  0.222222  0.055556  0.000000     12.000000
  0.277778  0.055556  0.000000     12.000000
  0.333333  0.055556  0.000000     12.000000
  0.388889  0.055556  0.000000     12.000000
  0.444444  0.055556  0.000000     12.000000
  0.111111  0.111111  0.000000      6.000000
  0.166667  0.111111  0.000000     12.000000
  0.222222  0.111111  0.000000     12.000000
  0.277778  0.111111  0.000000     12.000000
  0.333333  0.111111  0.000000     12.000000
  0.388889  0.111111  0.000000     12.000000
  0.444444  0.111111  0.000000      6.000000
  0.166667  0.166667  0.000000      6.000000
  0.222222  0.166667  0.000000     12.000000
  0.277778  0.166667  0.000000     12.000000
  0.333333  0.166667  0.000000     12.000000
  0.388889  0.166667  0.000000     12.000000
  0.222222  0.222222  0.000000      6.000000
  0.277778  0.222222  0.000000     12.000000
  0.333333  0.222222  0.000000     12.000000
  0.388889  0.222222  0.000000      6.000000
  0.277778  0.277778  0.000000      6.000000
  0.333333  0.277778  0.000000     12.000000
  0.333333  0.333333  0.000000      2.000000

 Following cartesian coordinates:
            Coordinates               Weight
  0.000000  0.000000  0.000000      1.000000
  0.015649  0.009035  0.000000      6.000000
  0.031298  0.018070  0.000000      6.000000
  0.046947  0.027105  0.000000      6.000000
  0.062596  0.036140  0.000000      6.000000
  0.078246  0.045175  0.000000      6.000000
  0.093895  0.054210  0.000000      6.000000
  0.109544  0.063245  0.000000      6.000000
  0.125193  0.072280  0.000000      6.000000
  0.140842  0.081315  0.000000      3.000000
  0.015649  0.027105  0.000000      6.000000
  0.031298  0.036140  0.000000     12.000000
  0.046947  0.045175  0.000000     12.000000
  0.062596  0.054210  0.000000     12.000000
  0.078246  0.063245  0.000000     12.000000
  0.093895  0.072280  0.000000     12.000000
  0.109544  0.081315  0.000000     12.000000
  0.125193  0.090350  0.000000     12.000000
  0.031298  0.054210  0.000000      6.000000
  0.046947  0.063245  0.000000     12.000000
  0.062596  0.072280  0.000000     12.000000
  0.078246  0.081315  0.000000     12.000000
  0.093895  0.090350  0.000000     12.000000
  0.109544  0.099385  0.000000     12.000000
  0.125193  0.108420  0.000000      6.000000
  0.046947  0.081315  0.000000      6.000000
  0.062596  0.090350  0.000000     12.000000
  0.078246  0.099385  0.000000     12.000000
  0.093895  0.108420  0.000000     12.000000
  0.109544  0.117455  0.000000     12.000000
  0.062596  0.108420  0.000000      6.000000
  0.078246  0.117455  0.000000     12.000000
  0.093895  0.126490  0.000000     12.000000
  0.109544  0.135525  0.000000      6.000000
  0.078246  0.135525  0.000000      6.000000
  0.093895  0.144560  0.000000     12.000000
  0.093895  0.162630  0.000000      2.000000

 TETIRR: Found    169 inequivalent tetrahedra from     1944

 Subroutine IBZKPT_HF returns following result:

 Found    324 k-points in 1st BZ
 the following    324 k-points will be used (e.g. in the exchange kernel)
 Following reciprocal coordinates:   # in IRBZ
  0.000000  0.000000  0.000000    0.00308642   1 t-inv F
  0.055556  0.000000  0.000000    0.00308642   2 t-inv F
  0.111111  0.000000  0.000000    0.00308642   3 t-inv F
  0.166667  0.000000  0.000000    0.00308642   4 t-inv F
  0.222222  0.000000  0.000000    0.00308642   5 t-inv F
  0.277778  0.000000  0.000000    0.00308642   6 t-inv F
  0.333333  0.000000  0.000000    0.00308642   7 t-inv F
  0.388889  0.000000  0.000000    0.00308642   8 t-inv F
  0.444444  0.000000  0.000000    0.00308642   9 t-inv F
  0.500000  0.000000  0.000000    0.00308642  10 t-inv F
  0.055556  0.055556  0.000000    0.00308642  11 t-inv F
  0.111111  0.055556  0.000000    0.00308642  12 t-inv F
  0.166667  0.055556  0.000000    0.00308642  13 t-inv F
  0.222222  0.055556  0.000000    0.00308642  14 t-inv F
  0.277778  0.055556  0.000000    0.00308642  15 t-inv F
  0.333333  0.055556  0.000000    0.00308642  16 t-inv F
  0.388889  0.055556  0.000000    0.00308642  17 t-inv F
  0.444444  0.055556  0.000000    0.00308642  18 t-inv F
  0.111111  0.111111  0.000000    0.00308642  19 t-inv F
  0.166667  0.111111  0.000000    0.00308642  20 t-inv F
  0.222222  0.111111  0.000000    0.00308642  21 t-inv F
  0.277778  0.111111  0.000000    0.00308642  22 t-inv F
  0.333333  0.111111  0.000000    0.00308642  23 t-inv F
  0.388889  0.111111  0.000000    0.00308642  24 t-inv F
  0.444444  0.111111  0.000000    0.00308642  25 t-inv F
  0.166667  0.166667  0.000000    0.00308642  26 t-inv F
  0.222222  0.166667  0.000000    0.00308642  27 t-inv F
  0.277778  0.166667  0.000000    0.00308642  28 t-inv F
  0.333333  0.166667  0.000000    0.00308642  29 t-inv F
  0.388889  0.166667  0.000000    0.00308642  30 t-inv F
  0.222222  0.222222  0.000000    0.00308642  31 t-inv F
  0.277778  0.222222  0.000000    0.00308642  32 t-inv F
  0.333333  0.222222  0.000000    0.00308642  33 t-inv F
  0.388889  0.222222  0.000000    0.00308642  34 t-inv F
  0.277778  0.277778  0.000000    0.00308642  35 t-inv F
  0.333333  0.277778  0.000000    0.00308642  36 t-inv F
  0.333333  0.333333  0.000000    0.00308642  37 t-inv F
 -0.055556 -0.000000 -0.000000    0.00308642   2 t-inv F
  0.055556 -0.055556 -0.000000    0.00308642   2 t-inv F
 -0.055556  0.055556  0.000000    0.00308642   2 t-inv F
  0.000000 -0.055556  0.000000    0.00308642   2 t-inv F
 -0.000000  0.055556 -0.000000    0.00308642   2 t-inv F
[...]
     -0.00000      1.02482     40.83804        -0.000000      0.000000      0.083005
    total drift:                                0.000000      0.000000      0.000000

  FREE ENERGIE OF THE ION-ELECTRON SYSTEM (eV)
  free  energy   TOTEN  =      -134.72954577 eV

  energy  without entropy=     -134.72954577  energy(sigma->0) =     -134.72954577

 Linear response reoptimize wavefunctions
 Linear response G [H, r] |phi>, progress :
  Direction:   1

[...]

  free energy    TOTEN  =      -760.60049053 eV

[...]

 Linear response G [H, r] |phi>, progress :
  Direction:   2

[...]

 Linear response G [H, r] |phi>, progress :
  Direction:   3

[...]

  free energy    TOTEN  =      -850.19001724 eV

[...]

 Linear response to external field (no local field effect), progress :
  Direction:   1
  LATTYP: Found a hexagonal cell.
 ALAT       =     3.5500762221
 C/A-ratio  =    14.0842046402

[...]

The dynamic configuration has the point symmetry C_2 .

[...]

 Free energy of the ion-electron system (eV)
  -Hartree energ DENC   =         0.00000000
  -V(xc)+E(xc)   XCENC  =         0.00000000
  PAW double counting   =         0.00000000        0.00000000
  entropy T*S    EENTRO =         0.00000000
  eigenvalues    EBANDS =       -15.08461829
  free energy    TOTEN  =       -15.08461829 eV

  energy without entropy =      -15.08461829

[...]

 change of polarisation eV/A/(eV/A) component  1 :    47.146    -1.952    -0.125
 dielectric tensor                  component  1 :    16.633    -0.647    -0.041

[...]

The dynamic configuration has the point symmetry C_1h.

[...]

 Linear response to external field (no local field effect), progress :
  Direction:   3
  LATTYP: Found a hexagonal cell.
 ALAT       =     3.5500762221
 C/A-ratio  =    14.0842046402

[...]

The dynamic configuration has the point symmetry C_1h.
 The point group associated with its full space group is C_3v.

[...]

 HEAD OF MICROSCOPIC STATIC DIELECTRIC TENSOR (INDEPENDENT PARTICLE, excluding Hartree and local field effects)
          16.624410     0.000000    -0.000000
          -0.000000    16.624410     0.000000
           0.000000    -0.000000    10.551998

 Linear response to external field, progress :
  Direction:   1
  LATTYP: Found a hexagonal cell.
 ALAT       =     3.5500762221
 C/A-ratio  =    14.0842046402

[...]

The dynamic configuration has the point symmetry C_2 .

[...]

  Parameters of vdW forcefield:
            C6ts              R0ts           ALPHAts        RELVOL
            (au)              (au)            (au)
   W         919.826          4.138         73.991          1.042
   W         923.355          4.140         74.133          1.044
   W         923.364          4.140         74.133          1.044
   W         923.364          4.140         74.133          1.044
   W         923.355          4.140         74.133          1.044
   W         919.826          4.138         73.991          1.042
   Te        408.975          4.237         38.262          1.016
   Te        401.513          4.224         37.911          1.007
   Te        408.996          4.237         38.263          1.016
   Te        408.969          4.237         38.261          1.016
   Te        408.996          4.237         38.263          1.016
   Te        408.995          4.237         38.263          1.016
   Te        408.995          4.237         38.263          1.016
   Te        408.996          4.237         38.263          1.016
   Te        408.969          4.237         38.261          1.016
   Te        408.996          4.237         38.263          1.016
   Te        401.513          4.224         37.911          1.007
   Te        408.975          4.237         38.262          1.016
  Edisp (eV):   -5.77548

[...]

 PIEZOELECTRIC TENSOR FIELD DIRECTION 1  (e Angst)
    -0.01268  0.00000  0.00000           ( -0.00076  0.00000  0.00000)
     0.00000  0.02018  0.00028           (  0.00000  0.00027  0.00001)
     0.00000  0.00041 -0.00248           (  0.00000  0.00001 -0.00020)

 PIEZOELECTRIC TENSOR FIELD DIRECTION 1  (C/m^2)
    -0.00037  0.00000  0.00000
     0.00000  0.00059  0.00001
     0.00000  0.00001 -0.00007

      POSITION         DIRECTION 1           BORN EFFECTIVE CHARGE    (rigid.aug.   ionic)
     -0.00000      1.02482      7.35000    -2.54388 -0.00052  0.00004 (  1.94634 14.00000)
      1.77504      2.04964     14.41000    -2.54555  0.00050  0.00001 (  1.94640 14.00000)
     -0.00000      1.02482     21.47000    -2.54458 -0.00049  0.00000 (  1.94640 14.00000)
      1.77504      2.04964     28.53000    -2.54458  0.00049 -0.00000 (  1.94640 14.00000)
     -0.00000      1.02482     35.59000    -2.54555 -0.00050 -0.00001 (  1.94640 14.00000)
      1.77504      2.04964     42.65000    -2.54388  0.00052 -0.00004 (  1.94634 14.00000)
      1.77504      2.04964      9.16196     1.28182 -0.00183  0.00022 (  1.18311  6.00000)
      1.77504      2.04964      5.53804     1.27996 -0.00169 -0.00010 (  1.18266  6.00000)
     -0.00000      1.02482     16.22196     1.28221  0.00183  0.00022 (  1.18311  6.00000)
     -0.00000      1.02482     12.59804     1.28368  0.00185 -0.00022 (  1.18307  6.00000)
      1.77504      2.04964     23.28196     1.28226 -0.00185  0.00023 (  1.18311  6.00000)
      1.77504      2.04964     19.65804     1.28223 -0.00183 -0.00022 (  1.18311  6.00000)
     -0.00000      1.02482     30.34196     1.28223  0.00183  0.00022 (  1.18311  6.00000)
     -0.00000      1.02482     26.71804     1.28226  0.00185 -0.00023 (  1.18311  6.00000)
      1.77504      2.04964     37.40196     1.28368 -0.00185  0.00022 (  1.18307  6.00000)
      1.77504      2.04964     33.77804     1.28221 -0.00183 -0.00022 (  1.18311  6.00000)
     -0.00000      1.02482     44.46196     1.27996  0.00169  0.00010 (  1.18266  6.00000)
     -0.00000      1.02482     40.83804     1.28182  0.00183 -0.00022 (  1.18311  6.00000)
    total drift (improves with k-points):   0.11630  0.00000 -0.00000

[...]

The dynamic configuration has the point symmetry C_1h.

[...]

 Linear response to external field, progress :
  Direction:   3
  LATTYP: Found a hexagonal cell.
 ALAT       =     3.5500762221
 C/A-ratio  =    14.0842046402

[...]

The dynamic configuration has the point symmetry C_1h.
 The point group associated with its full space group is C_3v.

[...]

----------------------------------------- Iteration    3(  23)  ---------------------------------------

 Broyden mixing:
  rms(total) = 0.55857E-06    rms(broyden)= 0.55854E-06
  rms(prec ) = 0.55959E-06
  weight for this iteration     100.00

 eigenvalues of (default mixing * dielectric matrix)
  average eigenvalue GAMMA=   1.8017
  6.6079  4.3773  3.2059  3.0572  2.8492  2.4448  1.9899  1.9899  1.5741  1.0581
  1.0581  1.0143  1.0143  0.9402  0.7922  0.7131  0.6851  0.5940  0.6316  0.6156
  0.6230

 Free energy of the ion-electron system (eV)
  -Hartree energ DENC   =        -2.79999939
  -V(xc)+E(xc)   XCENC  =         0.09579172
  PAW double counting   =         0.24302837       -0.24010723
  entropy T*S    EENTRO =         0.00000000
  eigenvalues    EBANDS =        -2.17441410
  free energy    TOTEN  =        -4.87570063 eV

  energy without entropy =       -4.87570063

------------------------ aborting loop because EDIFF is reached ----------------------------------------

 change of polarisation eV/A/(eV/A) component  3 :    -0.013     0.009     9.435
 dielectric tensor                  component  3 :    -0.004     0.003     4.129

[...]

  Hirshfeld charges:
            ion         q(e)
      1     W           0.216
      2     W           0.215
      3     W           0.215
      4     W           0.215
      5     W           0.215
      6     W           0.216
      7     Te         -0.108
      8     Te         -0.108
      9     Te         -0.107
     10     Te         -0.107
     11     Te         -0.107
     12     Te         -0.107
     13     Te         -0.107
     14     Te         -0.107
     15     Te         -0.107
     16     Te         -0.107
     17     Te         -0.108
     18     Te         -0.108

  Tkatchenko/Scheffler method for vdW energy calculation

  Parameters of vdW forcefield:
            C6ts              R0ts           ALPHAts        RELVOL
            (au)              (au)            (au)
   W         919.826          4.138         73.991          1.042
   W         923.355          4.140         74.133          1.044
   W         923.364          4.140         74.133          1.044
   W         923.364          4.140         74.133          1.044
   W         923.355          4.140         74.133          1.044
   W         919.826          4.138         73.991          1.042
   Te        408.975          4.237         38.262          1.016
   Te        401.514          4.224         37.911          1.007
   Te        408.996          4.237         38.263          1.016
   Te        408.969          4.237         38.261          1.016
   Te        408.996          4.237         38.263          1.016
   Te        408.995          4.237         38.263          1.016
   Te        408.995          4.237         38.263          1.016
   Te        408.996          4.237         38.263          1.016
   Te        408.968          4.237         38.261          1.016
   Te        408.996          4.237         38.263          1.016
   Te        401.513          4.224         37.911          1.007
   Te        408.976          4.237         38.262          1.016
  Edisp (eV):   -5.77548

 PIEZOELECTRIC TENSOR FIELD DIRECTION 3  (e Angst)
    -0.25892 -0.00000 -0.00000           ( -0.00000 -0.00000 -0.00000)
    -0.00000 -0.25892 -0.00000           (  0.00000 -0.00000 -0.00000)
     0.00000  0.00000 -0.51351           (  0.00000 -0.00000  0.00000)

 PIEZOELECTRIC TENSOR FIELD DIRECTION 3  (C/m^2)
    -0.00760 -0.00000 -0.00000
    -0.00000 -0.00760 -0.00000
     0.00000  0.00000 -0.01508

      POSITION         DIRECTION 3           BORN EFFECTIVE CHARGE    (rigid.aug.   ionic)
     -0.00000      1.02482      7.35000    -0.00000 -0.00000-60.38335 (  1.94634 14.00000)
      1.77504      2.04964     14.41000    -0.00000  0.00000-23.37687 (  1.94640 14.00000)
     -0.00000      1.02482     21.47000     0.00000 -0.00000 -4.66015 (  1.94640 14.00000)
      1.77504      2.04964     28.53000     0.00000 -0.00000 -4.77765 (  1.94640 14.00000)
     -0.00000      1.02482     35.59000    -0.00000 -0.00000-23.55763 (  1.94640 14.00000)
      1.77504      2.04964     42.65000    -0.00000  0.00000-60.29788 (  1.94634 14.00000)
      1.77504      2.04964      9.16196     0.00000 -0.00000 -5.44316 (  1.18311  6.00000)
      1.77504      2.04964      5.53804    -0.00000  0.00000 12.18845 (  1.18266  6.00000)
     -0.00000      1.02482     16.22196     0.00000  0.00000 -1.57407 (  1.18311  6.00000)
     -0.00000      1.02482     12.59804     0.00000  0.00000  1.36165 (  1.18307  6.00000)
      1.77504      2.04964     23.28196     0.00000 -0.00000  0.92881 (  1.18311  6.00000)
      1.77504      2.04964     19.65804     0.00000 -0.00000  2.20213 (  1.18311  6.00000)
     -0.00000      1.02482     30.34196     0.00000  0.00000  2.24865 (  1.18311  6.00000)
     -0.00000      1.02482     26.71804    -0.00000  0.00000  0.90972 (  1.18311  6.00000)
      1.77504      2.04964     37.40196     0.00000  0.00000  1.29226 (  1.18307  6.00000)
      1.77504      2.04964     33.77804    -0.00000 -0.00000 -1.63255 (  1.18311  6.00000)
     -0.00000      1.02482     44.46196     0.00000  0.00000 12.13436 (  1.18266  6.00000)
     -0.00000      1.02482     40.83804    -0.00000  0.00000 -5.44109 (  1.18311  6.00000)
    total drift (improves with k-points):   0.00000  0.00000*********

[...]

 MACROSCOPIC STATIC DIELECTRIC TENSOR (including local field effects in DFT)
          16.032320     0.000000    -0.000000
           0.000000    16.032320     0.000000
           0.000000     0.000000     4.128512

  LATTYP: Found a hexagonal cell.
 ALAT       =     3.5500762221
 C/A-ratio  =    14.0842046402

  Lattice vectors:

 A1 = (   3.5500762221,   0.0000000000,   0.0000000000)
 A2 = (  -1.7750381110,   3.0744561937,   0.0000000000)
 A3 = (   0.0000000000,   0.0000000000,  50.0000000000)

Analysis of symmetry for initial positions (statically):
 Subroutine PRICEL returns:
 Original cell was already a primitive cell.

[...]

The static configuration has the point symmetry C_2h.
 The point group associated with its full space group is D_3d.

Analysis of symmetry for dynamics (positions and initial velocities):
 Subroutine PRICEL returns:
 Original cell was already a primitive cell.

 Routine SETGRP: Setting up the symmetry group for a
 hexagonal supercell.

 Subroutine GETGRP returns: Found 12 space group operations
 (whereof  4 operations were pure point group operations)
 out of a pool of 24 trial point group operations.

The dynamic configuration has the point symmetry C_2h.
 The point group associated with its full space group is D_3d.

 Subroutine INISYM returns: Found 12 space group operations
 (whereof  4 operations are pure point group operations),
 and found     1 'primitive' translations

 MACROSCOPIC STATIC DIELECTRIC TENSOR (including local field effects in DFT)
          16.032320     0.000000    -0.000000
           0.000000    16.032320     0.000000
           0.000000     0.000000     4.128512

 PIEZOELECTRIC TENSOR  for field in x, y, z        (e  Angst)
          XX          YY          ZZ          XY          YZ          ZX
  x    -0.01268     0.02018    -0.00248     0.00000     0.00041     0.00000
  y    -0.02133     0.03726     0.01196     0.00000     0.00061     0.00000
  z    -0.25892    -0.25892    -0.51351    -0.00000     0.00000    -0.00000

 PIEZOELECTRIC TENSOR  for field in x, y, z        (C/m^2)
          XX          YY          ZZ          XY          YZ          ZX
  x     0.00000     0.00000     0.00000     0.00000     0.00000     0.00000
  y     0.00000     0.00000     0.00000     0.00000     0.00000     0.00000
  z     0.00000     0.00000     0.00000     0.00000     0.00000     0.00000

 BORN EFFECTIVE CHARGES (in e, cummulative output)
 ion    1
    1    -2.54388    -0.00052     0.00004
    2    -0.00000    -2.54476    -0.00008
    3    -0.00000    -0.00000   -60.38335
 ion    2
    1    -2.54555     0.00050     0.00001
    2     0.00000    -2.54457    -0.00000
    3    -0.00000     0.00000   -23.37687
 ion    3
    1    -2.54458    -0.00049     0.00000
    2     0.00000    -2.54560     0.00000
    3     0.00000    -0.00000    -4.66015
 ion    4
    1    -2.54458     0.00049    -0.00000
    2    -0.00000    -2.54358     0.00002
    3     0.00000    -0.00000    -4.77765
 ion    5
    1    -2.54555    -0.00050    -0.00001
    2     0.00000    -2.54652    -0.00000
    3    -0.00000    -0.00000   -23.55763
 ion    6
    1    -2.54388     0.00052    -0.00004
    2     0.00000    -2.54301     0.00019
    3    -0.00000     0.00000   -60.29788
 ion    7
    1     1.28182    -0.00183     0.00022
    2     0.00000     1.28228     0.00219
    3     0.00000    -0.00000    -5.44316
 ion    8
    1     1.27996    -0.00169    -0.00010
    2    -0.00000     1.28037    -0.00138
    3    -0.00000     0.00000    12.18845
 ion    9
    1     1.28221     0.00183     0.00022
    2    -0.00000     1.28173     0.00210
    3     0.00000     0.00000    -1.57407
 ion   10
    1     1.28368     0.00185    -0.00022
    2     0.00000     1.28322    -0.00209
    3     0.00000     0.00000     1.36165
 ion   11
    1     1.28226    -0.00185     0.00023
    2    -0.00000     1.28271     0.00212
    3     0.00000    -0.00000     0.92881
 ion   12
    1     1.28223    -0.00183    -0.00022
    2    -0.00000     1.28272    -0.00211
    3     0.00000    -0.00000     2.20213
 ion   13
    1     1.28223     0.00183     0.00022
    2     0.00000     1.28176     0.00210
    3     0.00000     0.00000     2.24865
 ion   14
    1     1.28226     0.00185    -0.00023
    2     0.00000     1.28180    -0.00211
    3    -0.00000     0.00000     0.90972
 ion   15
    1     1.28368    -0.00185     0.00022
    2     0.00000     1.28416     0.00210
    3     0.00000     0.00000     1.29226
 ion   16
    1     1.28221    -0.00183    -0.00022
    2     0.00000     1.28270    -0.00210
    3    -0.00000    -0.00000    -1.63255
 ion   17
    1     1.27996     0.00169     0.00010
    2     0.00000     1.27955     0.00137
    3     0.00000     0.00000    12.13436
 ion   18
    1     1.28182     0.00183    -0.00022
    2     0.00000     1.28138    -0.00217
    3    -0.00000     0.00000    -5.44109

 writing wavefunctions
 BZINTS: Fermi energy:  6.054373;156.000000 electrons
         Band energy:***********;  BLOECHL correction:  0.000000