 vasp.5.4.1 24Jun15 (build Apr 13 2016 13:07:19) complex

 executed on           IFC91_ompi date 2019.09.13  22:50:58

 INCAR:
 POTCAR:    PAW_PBE Mo_sv_GW 05Dec2013
 POTCAR:    PAW_PBE S_GW 19Mar2012

 POTCAR:    PAW_PBE Mo_sv_GW 05Dec2013
   VRHFIN =Mo: 4s4p5s4d

   TITEL  = PAW_PBE Mo_sv_GW 05Dec2013
   POMASS =   95.940; ZVAL   =   14.000    mass and valenz
   ENMAX  =  344.914; ENMIN  =  258.686 eV

 POTCAR:    PAW_PBE S_GW 19Mar2012
   VRHFIN =S : s2p4

   TITEL  = PAW_PBE S_GW 19Mar2012
   POMASS =   32.066; ZVAL   =    6.000    mass and valenz
   ENMAX  =  258.689; ENMIN  =  194.016 eV

  PAW_PBE Mo_sv_GW 05Dec2013            :
  PAW_PBE S_GW 19Mar2012                :

 POSCAR: Mo  S
  positions in cartesian coordinates
 exchange correlation table for  LEXCH =        8
   RHO(1)=    0.500       N(1)  =     2000
   RHO(2)=  100.500       N(2)  =     4000

 ion  position               nearest neighbor table
   1  0.167  0.333  0.193-   7 2.41   8 2.41   7 2.41   8 2.41   7 2.41   8 2.41
   2  0.833  0.667  0.316-   9 2.41  10 2.41   9 2.41  10 2.41   9 2.41  10 2.41
   3  0.167  0.333  0.438-  11 2.41  12 2.41  11 2.41  12 2.41  11 2.41  12 2.41
   4  0.833  0.667  0.562-  13 2.41  14 2.41  13 2.41  14 2.41  13 2.41  14 2.41
   5  0.167  0.333  0.684-  15 2.41  16 2.41  15 2.41  16 2.41  15 2.41  16 2.41
   6  0.833  0.667  0.807-  17 2.41  18 2.41  17 2.41  18 2.41  17 2.41  18 2.41
   7  0.833  0.667  0.224-   1 2.41   1 2.41   1 2.41
   8  0.833  0.667  0.161-   1 2.41   1 2.41   1 2.41
   9  0.167  0.333  0.347-   2 2.41   2 2.41   2 2.41
  10  0.167  0.333  0.284-   2 2.41   2 2.41   2 2.41
  11  0.833  0.667  0.470-   3 2.41   3 2.41   3 2.41
  12  0.833  0.667  0.407-   3 2.41   3 2.41   3 2.41
  13  0.167  0.333  0.593-   4 2.41   4 2.41   4 2.41
  14  0.167  0.333  0.530-   4 2.41   4 2.41   4 2.41
  15  0.833  0.667  0.716-   5 2.41   5 2.41   5 2.41
  16  0.833  0.667  0.653-   5 2.41   5 2.41   5 2.41
  17  0.167  0.333  0.839-   6 2.41   6 2.41   6 2.41
  18  0.167  0.333  0.776-   6 2.41   6 2.41   6 2.41

  LATTYP: Found a hexagonal cell.
 ALAT       =     3.1840664647
 C/A-ratio  =    15.7031897903

  Lattice vectors:

 A1 = (   3.1840664647,   0.0000000000,   0.0000000000)
 A2 = (  -1.5920332323,   2.7574824458,   0.0000000000)
 A3 = (   0.0000000000,   0.0000000000,  50.0000000000)

Analysis of symmetry for initial positions (statically):
 Subroutine PRICEL returns:
 Original cell was already a primitive cell.

 Routine SETGRP: Setting up the symmetry group for a
 hexagonal supercell.

 Subroutine GETGRP returns: Found 12 space group operations
 (whereof  4 operations were pure point group operations)
 out of a pool of 24 trial point group operations.

The static configuration has the point symmetry C_2h.
 The point group associated with its full space group is D_3d.

Analysis of symmetry for dynamics (positions and initial velocities):
 Subroutine PRICEL returns:
 Original cell was already a primitive cell.

[...]

The dynamic configuration has the point symmetry C_2h.
 The point group associated with its full space group is D_3d.

 Subroutine INISYM returns: Found 12 space group operations
 (whereof  4 operations are pure point group operations),
 and found     1 'primitive' translations

 KPOINTS: KPOINTS created by Atomic Simulation Env

Automatic generation of k-mesh.
Space group operators:
 irot       det(A)        alpha          n_x          n_y          n_z        tau_x        tau_y        tau_z
    1     1.000000     0.000000     1.000000     0.000000     0.000000     0.000000     0.000000     0.000000
    2    -1.000000     0.000000     1.000000     0.000000     0.000000     0.000000     0.000000     0.000000
    3     1.000000   180.000000     1.000000     0.000000     0.000000     0.000000     0.000000     0.000000
    4    -1.000000   180.000000     1.000000     0.000000     0.000000     0.000000     0.000000     0.000000
    5     1.000000   120.000000     0.000000     0.000000    -1.000000     0.500000     0.500000     0.000000
    6    -1.000000   120.000000     0.000000     0.000000    -1.000000     0.500000     0.500000     0.000000
    7     1.000000   120.000000     0.000000     0.000000     1.000000     0.000000     0.500000     0.000000
    8    -1.000000   120.000000     0.000000     0.000000     1.000000     0.000000     0.500000     0.000000
    9     1.000000   180.000000     0.500000    -0.866025     0.000000     0.000000     0.500000     0.000000
   10    -1.000000   180.000000     0.500000    -0.866025     0.000000     0.000000     0.500000     0.000000
   11     1.000000   180.000000    -0.500000    -0.866025     0.000000     0.500000     0.500000     0.000000
   12    -1.000000   180.000000    -0.500000    -0.866025     0.000000     0.500000     0.500000     0.000000

 Subroutine IBZKPT returns following result:

 Found     37 irreducible k-points:

 Following reciprocal coordinates:
            Coordinates               Weight
  0.000000  0.000000  0.000000      1.000000
  0.055556  0.000000  0.000000      6.000000
  0.111111  0.000000  0.000000      6.000000
  0.166667  0.000000  0.000000      6.000000
  0.222222  0.000000  0.000000      6.000000
  0.277778  0.000000  0.000000      6.000000
  0.333333  0.000000  0.000000      6.000000
  0.388889  0.000000  0.000000      6.000000
  0.444444  0.000000  0.000000      6.000000
  0.500000  0.000000  0.000000      3.000000
  0.055556  0.055556  0.000000      6.000000
  0.111111  0.055556  0.000000     12.000000
  0.166667  0.055556  0.000000     12.000000
  0.222222  0.055556  0.000000     12.000000
  0.277778  0.055556  0.000000     12.000000
  0.333333  0.055556  0.000000     12.000000
  0.388889  0.055556  0.000000     12.000000
  0.444444  0.055556  0.000000     12.000000
  0.111111  0.111111  0.000000      6.000000
  0.166667  0.111111  0.000000     12.000000
  0.222222  0.111111  0.000000     12.000000
  0.277778  0.111111  0.000000     12.000000
  0.333333  0.111111  0.000000     12.000000
  0.388889  0.111111  0.000000     12.000000
  0.444444  0.111111  0.000000      6.000000
  0.166667  0.166667  0.000000      6.000000
  0.222222  0.166667  0.000000     12.000000
  0.277778  0.166667  0.000000     12.000000
  0.333333  0.166667  0.000000     12.000000
  0.388889  0.166667  0.000000     12.000000
  0.222222  0.222222  0.000000      6.000000
  0.277778  0.222222  0.000000     12.000000
  0.333333  0.222222  0.000000     12.000000
  0.388889  0.222222  0.000000      6.000000
  0.277778  0.277778  0.000000      6.000000
  0.333333  0.277778  0.000000     12.000000
  0.333333  0.333333  0.000000      2.000000

 Following cartesian coordinates:
            Coordinates               Weight
  0.000000  0.000000  0.000000      1.000000
  0.017448  0.010074  0.000000      6.000000
  0.034896  0.020147  0.000000      6.000000
  0.052344  0.030221  0.000000      6.000000
  0.069792  0.040294  0.000000      6.000000
  0.087240  0.050368  0.000000      6.000000
  0.104688  0.060442  0.000000      6.000000
  0.122136  0.070515  0.000000      6.000000
  0.139584  0.080589  0.000000      6.000000
  0.157032  0.090662  0.000000      3.000000
  0.017448  0.030221  0.000000      6.000000
  0.034896  0.040294  0.000000     12.000000
  0.052344  0.050368  0.000000     12.000000
  0.069792  0.060442  0.000000     12.000000
  0.087240  0.070515  0.000000     12.000000
  0.104688  0.080589  0.000000     12.000000
  0.122136  0.090662  0.000000     12.000000
  0.139584  0.100736  0.000000     12.000000
  0.034896  0.060442  0.000000      6.000000
  0.052344  0.070515  0.000000     12.000000
  0.069792  0.080589  0.000000     12.000000
  0.087240  0.090662  0.000000     12.000000
  0.104688  0.100736  0.000000     12.000000
  0.122136  0.110810  0.000000     12.000000
  0.139584  0.120883  0.000000      6.000000
  0.052344  0.090662  0.000000      6.000000
  0.069792  0.100736  0.000000     12.000000
  0.087240  0.110810  0.000000     12.000000
  0.104688  0.120883  0.000000     12.000000
  0.122136  0.130957  0.000000     12.000000
  0.069792  0.120883  0.000000      6.000000
  0.087240  0.130957  0.000000     12.000000
  0.104688  0.141030  0.000000     12.000000
  0.122136  0.151104  0.000000      6.000000
  0.087240  0.151104  0.000000      6.000000
  0.104688  0.161178  0.000000     12.000000
  0.104688  0.181325  0.000000      2.000000

 TETIRR: Found    169 inequivalent tetrahedra from     1944

 Subroutine IBZKPT_HF returns following result:

 Found    324 k-points in 1st BZ
 the following    324 k-points will be used (e.g. in the exchange kernel)
 Following reciprocal coordinates:   # in IRBZ
  0.000000  0.000000  0.000000    0.00308642   1 t-inv F
  0.055556  0.000000  0.000000    0.00308642   2 t-inv F
  0.111111  0.000000  0.000000    0.00308642   3 t-inv F
  0.166667  0.000000  0.000000    0.00308642   4 t-inv F
  0.222222  0.000000  0.000000    0.00308642   5 t-inv F
  0.277778  0.000000  0.000000    0.00308642   6 t-inv F
  0.333333  0.000000  0.000000    0.00308642   7 t-inv F
  0.388889  0.000000  0.000000    0.00308642   8 t-inv F
  0.444444  0.000000  0.000000    0.00308642   9 t-inv F
  0.500000  0.000000  0.000000    0.00308642  10 t-inv F
  0.055556  0.055556  0.000000    0.00308642  11 t-inv F
  0.111111  0.055556  0.000000    0.00308642  12 t-inv F
  0.166667  0.055556  0.000000    0.00308642  13 t-inv F
  0.222222  0.055556  0.000000    0.00308642  14 t-inv F
  0.277778  0.055556  0.000000    0.00308642  15 t-inv F
  0.333333  0.055556  0.000000    0.00308642  16 t-inv F
  0.388889  0.055556  0.000000    0.00308642  17 t-inv F
  0.444444  0.055556  0.000000    0.00308642  18 t-inv F
  0.111111  0.111111  0.000000    0.00308642  19 t-inv F
  0.166667  0.111111  0.000000    0.00308642  20 t-inv F
  0.222222  0.111111  0.000000    0.00308642  21 t-inv F
  0.277778  0.111111  0.000000    0.00308642  22 t-inv F
  0.333333  0.111111  0.000000    0.00308642  23 t-inv F
  0.388889  0.111111  0.000000    0.00308642  24 t-inv F
  0.444444  0.111111  0.000000    0.00308642  25 t-inv F
  0.166667  0.166667  0.000000    0.00308642  26 t-inv F
  0.222222  0.166667  0.000000    0.00308642  27 t-inv F
  0.277778  0.166667  0.000000    0.00308642  28 t-inv F
  0.333333  0.166667  0.000000    0.00308642  29 t-inv F
  0.388889  0.166667  0.000000    0.00308642  30 t-inv F
  0.222222  0.222222  0.000000    0.00308642  31 t-inv F
  0.277778  0.222222  0.000000    0.00308642  32 t-inv F
  0.333333  0.222222  0.000000    0.00308642  33 t-inv F
  0.388889  0.222222  0.000000    0.00308642  34 t-inv F
  0.277778  0.277778  0.000000    0.00308642  35 t-inv F
  0.333333  0.277778  0.000000    0.00308642  36 t-inv F
  0.333333  0.333333  0.000000    0.00308642  37 t-inv F
 -0.055556 -0.000000 -0.000000    0.00308642   2 t-inv F
  0.055556 -0.055556 -0.000000    0.00308642   2 t-inv F
 -0.055556  0.055556  0.000000    0.00308642   2 t-inv F
  0.000000 -0.055556  0.000000    0.00308642   2 t-inv F
 -0.000000  0.055556 -0.000000    0.00308642   2 t-inv F
 -0.111111 -0.000000 -0.000000    0.00308642   3 t-inv F
  0.111111 -0.111111 -0.000000    0.00308642   3 t-inv F
[...]
     -0.00000      0.91916     38.81144         0.000000     -0.000000      0.092546
    total drift:                                0.000000     -0.000000      0.000000

  FREE ENERGIE OF THE ION-ELECTRON SYSTEM (eV)
  free  energy   TOTEN  =      -140.82108259 eV

  energy  without entropy=     -140.82108259  energy(sigma->0) =     -140.82108259

 Linear response reoptimize wavefunctions
 Linear response G [H, r] |phi>, progress :
  Direction:   1

[...]

  free energy    TOTEN  =      -598.88298676 eV

[...]

 Linear response G [H, r] |phi>, progress :
  Direction:   2

[...]

 Linear response G [H, r] |phi>, progress :
  Direction:   3

[...]

  free energy    TOTEN  =      -652.48633041 eV

[...]

 Linear response to external field (no local field effect), progress :
  Direction:   1
  LATTYP: Found a hexagonal cell.
 ALAT       =     3.1840664647
 C/A-ratio  =    15.7031897903

[...]

The dynamic configuration has the point symmetry C_2 .

[...]

 Free energy of the ion-electron system (eV)
  -Hartree energ DENC   =         0.00000000
  -V(xc)+E(xc)   XCENC  =         0.00000000
  PAW double counting   =         0.00000000        0.00000000
  entropy T*S    EENTRO =         0.00000000
  eigenvalues    EBANDS =       -10.93066414
  free energy    TOTEN  =       -10.93066414 eV

  energy without entropy =      -10.93066414

[...]

 change of polarisation eV/A/(eV/A) component  1 :    27.562    -3.256    -0.068
 dielectric tensor                  component  1 :    12.361    -1.342    -0.028

[...]

The dynamic configuration has the point symmetry C_1h.

[...]

 Linear response to external field (no local field effect), progress :
  Direction:   3
  LATTYP: Found a hexagonal cell.
 ALAT       =     3.1840664647
 C/A-ratio  =    15.7031897903

[...]

The dynamic configuration has the point symmetry C_1h.
 The point group associated with its full space group is C_3v.

[...]

 HEAD OF MICROSCOPIC STATIC DIELECTRIC TENSOR (INDEPENDENT PARTICLE, excluding Hartree and local field effects)
          12.279255    -0.000000    -0.000000
           0.000000    12.279255     0.000000
           0.000000    -0.000000     7.377359

 Linear response to external field, progress :
  Direction:   1
  LATTYP: Found a hexagonal cell.
 ALAT       =     3.1840664647
 C/A-ratio  =    15.7031897903

[...]

The dynamic configuration has the point symmetry C_2 .

[...]

  Parameters of vdW forcefield:
            C6ts              R0ts           ALPHAts        RELVOL
            (au)              (au)            (au)
   Mo       1059.768          4.121         89.744          1.015
   Mo       1070.539          4.128         90.199          1.020
   Mo       1070.550          4.128         90.199          1.020
   Mo       1070.550          4.128         90.199          1.020
   Mo       1070.539          4.128         90.199          1.020
   Mo       1059.768          4.121         89.744          1.015
   S         136.635          3.868         19.792          1.010
   S         133.850          3.854         19.589          0.999
   S         136.639          3.868         19.792          1.010
   S         136.633          3.868         19.792          1.010
   S         136.638          3.868         19.792          1.010
   S         136.638          3.868         19.792          1.010
   S         136.638          3.868         19.792          1.010
   S         136.638          3.868         19.792          1.010
   S         136.633          3.868         19.792          1.010
   S         136.639          3.868         19.792          1.010
   S         133.850          3.854         19.589          0.999
   S         136.635          3.868         19.792          1.010
  Edisp (eV):   -5.44528

[...]

 PIEZOELECTRIC TENSOR FIELD DIRECTION 1  (e Angst)
    -0.01034  0.00000  0.00000           ( -0.00139  0.00000  0.00000)
     0.00000  0.01258  0.00015           (  0.00000  0.00089  0.00001)
     0.00000  0.00015 -0.00202           (  0.00000  0.00001 -0.00031)

 PIEZOELECTRIC TENSOR FIELD DIRECTION 1  (C/m^2)
    -0.00038  0.00000  0.00000
     0.00000  0.00046  0.00001
     0.00000  0.00001 -0.00007

      POSITION         DIRECTION 1           BORN EFFECTIVE CHARGE    (rigid.aug.   ionic)
     -0.00000      0.91916      9.62500    -1.00315 -0.00019  0.00003 (  0.17436 14.00000)
      1.59203      1.83832     15.77500    -0.99439  0.00014  0.00000 (  0.17424 14.00000)
     -0.00000      0.91916     21.92500    -0.99413 -0.00014 -0.00000 (  0.17423 14.00000)
      1.59203      1.83832     28.07500    -0.99413  0.00014  0.00000 (  0.17423 14.00000)
     -0.00000      0.91916     34.22500    -0.99439 -0.00014 -0.00000 (  0.17424 14.00000)
      1.59203      1.83832     40.37500    -1.00315  0.00019 -0.00003 (  0.17436 14.00000)
      1.59203      1.83832     11.18856     0.47777 -0.00146  0.00015 (  0.66111  6.00000)
      1.59203      1.83832      8.06144     0.50060 -0.00141 -0.00008 (  0.66041  6.00000)
     -0.00000      0.91916     17.33856     0.48481  0.00149  0.00015 (  0.66112  6.00000)
     -0.00000      0.91916     14.21144     0.48519  0.00150 -0.00015 (  0.66112  6.00000)
      1.59203      1.83832     23.48856     0.48477 -0.00149  0.00015 (  0.66112  6.00000)
      1.59203      1.83832     20.36144     0.48474 -0.00149 -0.00015 (  0.66112  6.00000)
     -0.00000      0.91916     29.63856     0.48474  0.00149  0.00015 (  0.66112  6.00000)
     -0.00000      0.91916     26.51144     0.48477  0.00149 -0.00015 (  0.66112  6.00000)
      1.59203      1.83832     35.78856     0.48519 -0.00150  0.00015 (  0.66112  6.00000)
      1.59203      1.83832     32.66144     0.48481 -0.00149 -0.00015 (  0.66112  6.00000)
     -0.00000      0.91916     41.93856     0.50060  0.00141  0.00008 (  0.66041  6.00000)
     -0.00000      0.91916     38.81144     0.47777  0.00146 -0.00015 (  0.66111  6.00000)
    total drift (improves with k-points):  -0.14757  0.00000  0.00000

[...]

The dynamic configuration has the point symmetry C_1h.

[...]

 Linear response to external field, progress :
  Direction:   3
  LATTYP: Found a hexagonal cell.
 ALAT       =     3.1840664647
 C/A-ratio  =    15.7031897903

[...]

The dynamic configuration has the point symmetry C_1h.
 The point group associated with its full space group is C_3v.

[...]

----------------------------------------- Iteration    3(  23)  ---------------------------------------

 Broyden mixing:
  rms(total) = 0.91480E-06    rms(broyden)= 0.91403E-06
  rms(prec ) = 0.94935E-06
  weight for this iteration     100.00

 eigenvalues of (default mixing * dielectric matrix)
  average eigenvalue GAMMA=   2.0606
  9.0467  5.5040  4.3162  3.3205  2.9431  2.4732  2.1066  1.8458  1.3735  1.3735
  1.2683  0.9310  0.9310  0.9329  0.9329  0.7450  0.7738  0.6682  0.5845  0.5943
  0.6065

 Free energy of the ion-electron system (eV)
  -Hartree energ DENC   =        -1.31148247
  -V(xc)+E(xc)   XCENC  =         0.02608815
  PAW double counting   =         0.08459081       -0.08467675
  entropy T*S    EENTRO =         0.00000000
  eigenvalues    EBANDS =        -0.76312512
  free energy    TOTEN  =        -2.04860537 eV

  energy without entropy =       -2.04860537

------------------------ aborting loop because EDIFF is reached ----------------------------------------

 change of polarisation eV/A/(eV/A) component  3 :    -0.014     0.004     3.991
 dielectric tensor                  component  3 :    -0.006     0.001     2.645

[...]

  Hirshfeld charges:
            ion         q(e)
      1     Mo          0.374
      2     Mo          0.372
      3     Mo          0.372
      4     Mo          0.372
      5     Mo          0.372
      6     Mo          0.374
      7     S          -0.186
      8     S          -0.187
      9     S          -0.186
     10     S          -0.186
     11     S          -0.186
     12     S          -0.186
     13     S          -0.186
     14     S          -0.186
     15     S          -0.186
     16     S          -0.186
     17     S          -0.187
     18     S          -0.186

  Tkatchenko/Scheffler method for vdW energy calculation

  Parameters of vdW forcefield:
            C6ts              R0ts           ALPHAts        RELVOL
            (au)              (au)            (au)
   Mo       1059.768          4.121         89.744          1.015
   Mo       1070.539          4.128         90.199          1.020
   Mo       1070.550          4.128         90.199          1.020
   Mo       1070.550          4.128         90.199          1.020
   Mo       1070.539          4.128         90.199          1.020
   Mo       1059.768          4.121         89.744          1.015
   S         136.635          3.868         19.792          1.010
   S         133.850          3.854         19.589          0.999
   S         136.638          3.868         19.792          1.010
   S         136.633          3.868         19.792          1.010
   S         136.638          3.868         19.792          1.010
   S         136.638          3.868         19.792          1.010
   S         136.638          3.868         19.792          1.010
   S         136.638          3.868         19.792          1.010
   S         136.633          3.868         19.792          1.010
   S         136.639          3.868         19.792          1.010
   S         133.850          3.854         19.589          0.999
   S         136.635          3.868         19.792          1.010
  Edisp (eV):   -5.44528

 PIEZOELECTRIC TENSOR FIELD DIRECTION 3  (e Angst)
     0.07190  0.00000 -0.00000           ( -0.00000  0.00000 -0.00000)
     0.00000  0.07190 -0.00000           (  0.00000 -0.00000 -0.00000)
     0.00000  0.00000 -0.00303           ( -0.00000 -0.00000  0.00000)

 PIEZOELECTRIC TENSOR FIELD DIRECTION 3  (C/m^2)
     0.00262  0.00000 -0.00000
     0.00000  0.00262 -0.00000
     0.00000  0.00000 -0.00011

      POSITION         DIRECTION 3           BORN EFFECTIVE CHARGE    (rigid.aug.   ionic)
     -0.00000      0.91916      9.62500     0.00000  0.00000-60.71091 (  0.17436 14.00000)
      1.59203      1.83832     15.77500    -0.00000 -0.00000-22.27030 (  0.17424 14.00000)
     -0.00000      0.91916     21.92500    -0.00000  0.00000 -2.20051 (  0.17423 14.00000)
      1.59203      1.83832     28.07500     0.00000 -0.00000 -2.18690 (  0.17423 14.00000)
     -0.00000      0.91916     34.22500     0.00000 -0.00000-22.24216 (  0.17424 14.00000)
      1.59203      1.83832     40.37500     0.00000  0.00000-60.74054 (  0.17436 14.00000)
      1.59203      1.83832     11.18856     0.00000  0.00000 -5.57415 (  0.66111  6.00000)
      1.59203      1.83832      8.06144     0.00000 -0.00000 -0.95350 (  0.66041  6.00000)
     -0.00000      0.91916     17.33856    -0.00000  0.00000 -1.66067 (  0.66112  6.00000)
     -0.00000      0.91916     14.21144    -0.00000  0.00000  2.04891 (  0.66112  6.00000)
      1.59203      1.83832     23.48856    -0.00000  0.00000  0.22790 (  0.66112  6.00000)
      1.59203      1.83832     20.36144     0.00000 -0.00000  1.28541 (  0.66112  6.00000)
     -0.00000      0.91916     29.63856     0.00000  0.00000  1.09378 (  0.66112  6.00000)
     -0.00000      0.91916     26.51144     0.00000  0.00000  0.16556 (  0.66112  6.00000)
      1.59203      1.83832     35.78856     0.00000 -0.00000  2.57499 (  0.66112  6.00000)
      1.59203      1.83832     32.66144    -0.00000  0.00000 -1.47000 (  0.66112  6.00000)
     -0.00000      0.91916     41.93856     0.00000 -0.00000 -1.07845 (  0.66041  6.00000)
     -0.00000      0.91916     38.81144     0.00000 -0.00000 -5.95113 (  0.66111  6.00000)
    total drift (improves with k-points):   0.00000  0.00000*********

[...]

 MACROSCOPIC STATIC DIELECTRIC TENSOR (including local field effects in DFT)
          11.629256    -0.000000    -0.000000
           0.000000    11.629256    -0.000000
          -0.000000     0.000000     2.645089

  LATTYP: Found a hexagonal cell.
 ALAT       =     3.1840664647
 C/A-ratio  =    15.7031897903

  Lattice vectors:

 A1 = (   3.1840664647,   0.0000000000,   0.0000000000)
 A2 = (  -1.5920332323,   2.7574824458,   0.0000000000)
 A3 = (   0.0000000000,   0.0000000000,  50.0000000000)

Analysis of symmetry for initial positions (statically):
 Subroutine PRICEL returns:
 Original cell was already a primitive cell.

[...]

The static configuration has the point symmetry C_2h.
 The point group associated with its full space group is D_3d.

Analysis of symmetry for dynamics (positions and initial velocities):
 Subroutine PRICEL returns:
 Original cell was already a primitive cell.

 Routine SETGRP: Setting up the symmetry group for a
 hexagonal supercell.

 Subroutine GETGRP returns: Found 12 space group operations
 (whereof  4 operations were pure point group operations)
 out of a pool of 24 trial point group operations.

The dynamic configuration has the point symmetry C_2h.
 The point group associated with its full space group is D_3d.

 Subroutine INISYM returns: Found 12 space group operations
 (whereof  4 operations are pure point group operations),
 and found     1 'primitive' translations

 MACROSCOPIC STATIC DIELECTRIC TENSOR (including local field effects in DFT)
          11.629256    -0.000000    -0.000000
           0.000000    11.629256    -0.000000
          -0.000000     0.000000     2.645089

 PIEZOELECTRIC TENSOR  for field in x, y, z        (e  Angst)
          XX          YY          ZZ          XY          YZ          ZX
  x    -0.01034     0.01258    -0.00202     0.00000     0.00015     0.00000
  y    -0.01386     0.02317    -0.00187     0.00000     0.00011     0.00000
  z     0.07190     0.07190    -0.00303     0.00000     0.00000    -0.00000

 PIEZOELECTRIC TENSOR  for field in x, y, z        (C/m^2)
          XX          YY          ZZ          XY          YZ          ZX
  x     0.00000     0.00000     0.00000     0.00000     0.00000     0.00000
  y     0.00000     0.00000     0.00000     0.00000     0.00000     0.00000
  z     0.00000     0.00000     0.00000     0.00000     0.00000     0.00000

 BORN EFFECTIVE CHARGES (in e, cummulative output)
 ion    1
    1    -1.00315    -0.00019     0.00003
    2     0.00000    -1.00379     0.00001
    3     0.00000     0.00000   -60.71091
 ion    2
    1    -0.99439     0.00014     0.00000
    2     0.00000    -0.99369    -0.00000
    3    -0.00000    -0.00000   -22.27030
 ion    3
    1    -0.99413    -0.00014    -0.00000
    2    -0.00000    -0.99483     0.00000
    3    -0.00000     0.00000    -2.20051
 ion    4
    1    -0.99413     0.00014     0.00000
    2    -0.00000    -0.99343     0.00000
    3     0.00000    -0.00000    -2.18690
 ion    5
    1    -0.99439    -0.00014    -0.00000
    2     0.00000    -0.99509     0.00000
    3     0.00000    -0.00000   -22.24216
 ion    6
    1    -1.00315     0.00019    -0.00003
    2    -0.00000    -1.00250    -0.00001
    3     0.00000     0.00000   -60.74054
 ion    7
    1     0.47777    -0.00146     0.00015
    2     0.00000     0.47818     0.00086
    3     0.00000     0.00000    -5.57415
 ion    8
    1     0.50060    -0.00141    -0.00008
    2     0.00000     0.50098    -0.00057
    3     0.00000    -0.00000    -0.95350
 ion    9
    1     0.48481     0.00149     0.00015
    2     0.00000     0.48438     0.00084
    3    -0.00000     0.00000    -1.66067
 ion   10
    1     0.48519     0.00150    -0.00015
    2    -0.00000     0.48474    -0.00082
    3    -0.00000     0.00000     2.04891
 ion   11
    1     0.48477    -0.00149     0.00015
    2     0.00000     0.48521     0.00085
    3    -0.00000     0.00000     0.22790
 ion   12
    1     0.48474    -0.00149    -0.00015
    2    -0.00000     0.48518    -0.00086
    3     0.00000    -0.00000     1.28541
 ion   13
    1     0.48474     0.00149     0.00015
    2     0.00000     0.48431     0.00085
    3     0.00000     0.00000     1.09378
 ion   14
    1     0.48477     0.00149    -0.00015
    2    -0.00000     0.48433    -0.00084
    3     0.00000     0.00000     0.16556
 ion   15
    1     0.48519    -0.00150     0.00015
    2     0.00000     0.48563     0.00083
    3     0.00000    -0.00000     2.57499
 ion   16
    1     0.48481    -0.00149    -0.00015
    2     0.00000     0.48523    -0.00085
    3    -0.00000     0.00000    -1.47000
 ion   17
    1     0.50060     0.00141     0.00008
    2    -0.00000     0.50023     0.00056
    3     0.00000    -0.00000    -1.07845
 ion   18
    1     0.47777     0.00146    -0.00015
    2     0.00000     0.47737    -0.00086
    3     0.00000    -0.00000    -5.95113

 writing wavefunctions
 BZINTS: Fermi energy:  4.133388;156.000000 electrons
         Band energy:***********;  BLOECHL correction:  0.000000