 vasp.5.4.1 24Jun15 (build Apr 13 2016 13:07:19) complex

 executed on           IFC91_ompi date 2019.09.13  17:29:59

 INCAR:
 POTCAR:    PAW_PBE Mo_sv_GW 05Dec2013
 POTCAR:    PAW_PBE S_GW 19Mar2012

 POTCAR:    PAW_PBE Mo_sv_GW 05Dec2013
   VRHFIN =Mo: 4s4p5s4d

   TITEL  = PAW_PBE Mo_sv_GW 05Dec2013
   POMASS =   95.940; ZVAL   =   14.000    mass and valenz
   ENMAX  =  344.914; ENMIN  =  258.686 eV

 POTCAR:    PAW_PBE S_GW 19Mar2012
   VRHFIN =S : s2p4

   TITEL  = PAW_PBE S_GW 19Mar2012
   POMASS =   32.066; ZVAL   =    6.000    mass and valenz
   ENMAX  =  258.689; ENMIN  =  194.016 eV

  PAW_PBE Mo_sv_GW 05Dec2013            :
  PAW_PBE S_GW 19Mar2012                :

 POSCAR: Mo  S
  positions in cartesian coordinates
 exchange correlation table for  LEXCH =        8
   RHO(1)=    0.500       N(1)  =     2000
   RHO(2)=  100.500       N(2)  =     4000

 ion  position               nearest neighbor table
   1  0.167  0.333  0.377-   4 2.41   5 2.41   4 2.41   5 2.41   4 2.41   5 2.41
   2  0.833  0.667  0.500-   6 2.41   7 2.41   6 2.41   7 2.41   6 2.41   7 2.41
   3  0.167  0.333  0.623-   8 2.41   9 2.41   8 2.41   9 2.41   8 2.41   9 2.41
   4  0.833  0.667  0.408-   1 2.41   1 2.41   1 2.41
   5  0.833  0.667  0.346-   1 2.41   1 2.41   1 2.41
   6  0.167  0.333  0.531-   2 2.41   2 2.41   2 2.41
   7  0.167  0.333  0.469-   2 2.41   2 2.41   2 2.41
   8  0.833  0.667  0.654-   3 2.41   3 2.41   3 2.41
   9  0.833  0.667  0.592-   3 2.41   3 2.41   3 2.41

  LATTYP: Found a hexagonal cell.
 ALAT       =     3.1840664647
 C/A-ratio  =    15.7031897903

  Lattice vectors:

 A1 = (   3.1840664647,   0.0000000000,   0.0000000000)
 A2 = (  -1.5920332323,   2.7574824458,   0.0000000000)
 A3 = (   0.0000000000,   0.0000000000,  50.0000000000)

Analysis of symmetry for initial positions (statically):
 Subroutine PRICEL returns:
 Original cell was already a primitive cell.

 Routine SETGRP: Setting up the symmetry group for a
 hexagonal supercell.

 Subroutine GETGRP returns: Found 12 space group operations
 (whereof  4 operations were pure point group operations)
 out of a pool of 24 trial point group operations.

The static configuration has the point symmetry C_2v.
 The point group associated with its full space group is D_3h.

Analysis of symmetry for dynamics (positions and initial velocities):
 Subroutine PRICEL returns:
 Original cell was already a primitive cell.

[...]

The dynamic configuration has the point symmetry C_2v.
 The point group associated with its full space group is D_3h.

 Subroutine INISYM returns: Found 12 space group operations
 (whereof  4 operations are pure point group operations),
 and found     1 'primitive' translations

 KPOINTS: KPOINTS created by Atomic Simulation Env

Automatic generation of k-mesh.
Space group operators:
 irot       det(A)        alpha          n_x          n_y          n_z        tau_x        tau_y        tau_z
    1     1.000000     0.000000     1.000000     0.000000     0.000000     0.000000     0.000000     0.000000
    2    -1.000000   180.000000     0.000000     0.000000     1.000000     0.000000     0.000000     0.000000
    3    -1.000000   180.000000     1.000000     0.000000     0.000000     0.000000     0.000000     0.000000
    4     1.000000   180.000000     0.000000     1.000000     0.000000     0.000000     0.000000     0.000000
    5    -1.000000    60.000000     0.000000     0.000000    -1.000000     0.000000     0.500000     0.000000
    6     1.000000   120.000000     0.000000     0.000000    -1.000000     0.500000     0.500000     0.000000
    7     1.000000   120.000000     0.000000     0.000000     1.000000     0.000000     0.500000     0.000000
    8    -1.000000    60.000000     0.000000     0.000000     1.000000     0.500000     0.500000     0.000000
    9     1.000000   180.000000     0.866025    -0.500000     0.000000     0.500000     0.500000     0.000000
   10    -1.000000   180.000000     0.500000    -0.866025     0.000000     0.000000     0.500000     0.000000
   11    -1.000000   180.000000    -0.500000    -0.866025     0.000000     0.500000     0.500000     0.000000
   12     1.000000   180.000000     0.866025     0.500000     0.000000     0.000000     0.500000     0.000000

 Subroutine IBZKPT returns following result:

 Found     37 irreducible k-points:

 Following reciprocal coordinates:
            Coordinates               Weight
  0.000000  0.000000  0.000000      1.000000
  0.055556  0.000000  0.000000      6.000000
  0.111111  0.000000  0.000000      6.000000
  0.166667  0.000000  0.000000      6.000000
  0.222222  0.000000  0.000000      6.000000
  0.277778  0.000000  0.000000      6.000000
  0.333333  0.000000  0.000000      6.000000
  0.388889  0.000000  0.000000      6.000000
  0.444444  0.000000  0.000000      6.000000
  0.500000  0.000000  0.000000      3.000000
  0.055556  0.055556  0.000000      6.000000
  0.111111  0.055556  0.000000     12.000000
  0.166667  0.055556  0.000000     12.000000
  0.222222  0.055556  0.000000     12.000000
  0.277778  0.055556  0.000000     12.000000
  0.333333  0.055556  0.000000     12.000000
  0.388889  0.055556  0.000000     12.000000
  0.444444  0.055556  0.000000     12.000000
  0.111111  0.111111  0.000000      6.000000
  0.166667  0.111111  0.000000     12.000000
  0.222222  0.111111  0.000000     12.000000
  0.277778  0.111111  0.000000     12.000000
  0.333333  0.111111  0.000000     12.000000
  0.388889  0.111111  0.000000     12.000000
  0.444444  0.111111  0.000000      6.000000
  0.166667  0.166667  0.000000      6.000000
  0.222222  0.166667  0.000000     12.000000
  0.277778  0.166667  0.000000     12.000000
  0.333333  0.166667  0.000000     12.000000
  0.388889  0.166667  0.000000     12.000000
  0.222222  0.222222  0.000000      6.000000
  0.277778  0.222222  0.000000     12.000000
  0.333333  0.222222  0.000000     12.000000
  0.388889  0.222222  0.000000      6.000000
  0.277778  0.277778  0.000000      6.000000
  0.333333  0.277778  0.000000     12.000000
  0.333333  0.333333  0.000000      2.000000

 Following cartesian coordinates:
            Coordinates               Weight
  0.000000  0.000000  0.000000      1.000000
  0.017448  0.010074  0.000000      6.000000
  0.034896  0.020147  0.000000      6.000000
  0.052344  0.030221  0.000000      6.000000
  0.069792  0.040294  0.000000      6.000000
  0.087240  0.050368  0.000000      6.000000
  0.104688  0.060442  0.000000      6.000000
  0.122136  0.070515  0.000000      6.000000
  0.139584  0.080589  0.000000      6.000000
  0.157032  0.090662  0.000000      3.000000
  0.017448  0.030221  0.000000      6.000000
  0.034896  0.040294  0.000000     12.000000
  0.052344  0.050368  0.000000     12.000000
  0.069792  0.060442  0.000000     12.000000
  0.087240  0.070515  0.000000     12.000000
  0.104688  0.080589  0.000000     12.000000
  0.122136  0.090662  0.000000     12.000000
  0.139584  0.100736  0.000000     12.000000
  0.034896  0.060442  0.000000      6.000000
  0.052344  0.070515  0.000000     12.000000
  0.069792  0.080589  0.000000     12.000000
  0.087240  0.090662  0.000000     12.000000
  0.104688  0.100736  0.000000     12.000000
  0.122136  0.110810  0.000000     12.000000
  0.139584  0.120883  0.000000      6.000000
  0.052344  0.090662  0.000000      6.000000
  0.069792  0.100736  0.000000     12.000000
  0.087240  0.110810  0.000000     12.000000
  0.104688  0.120883  0.000000     12.000000
  0.122136  0.130957  0.000000     12.000000
  0.069792  0.120883  0.000000      6.000000
  0.087240  0.130957  0.000000     12.000000
  0.104688  0.141030  0.000000     12.000000
  0.122136  0.151104  0.000000      6.000000
  0.087240  0.151104  0.000000      6.000000
  0.104688  0.161178  0.000000     12.000000
  0.104688  0.181325  0.000000      2.000000

 TETIRR: Found    169 inequivalent tetrahedra from     1944

 Subroutine IBZKPT_HF returns following result:

 Found    324 k-points in 1st BZ
 the following    324 k-points will be used (e.g. in the exchange kernel)
 Following reciprocal coordinates:   # in IRBZ
  0.000000  0.000000  0.000000    0.00308642   1 t-inv F
  0.055556  0.000000  0.000000    0.00308642   2 t-inv F
  0.111111  0.000000  0.000000    0.00308642   3 t-inv F
  0.166667  0.000000  0.000000    0.00308642   4 t-inv F
  0.222222  0.000000  0.000000    0.00308642   5 t-inv F
  0.277778  0.000000  0.000000    0.00308642   6 t-inv F
  0.333333  0.000000  0.000000    0.00308642   7 t-inv F
  0.388889  0.000000  0.000000    0.00308642   8 t-inv F
  0.444444  0.000000  0.000000    0.00308642   9 t-inv F
  0.500000  0.000000  0.000000    0.00308642  10 t-inv F
  0.055556  0.055556  0.000000    0.00308642  11 t-inv F
  0.111111  0.055556  0.000000    0.00308642  12 t-inv F
  0.166667  0.055556  0.000000    0.00308642  13 t-inv F
  0.222222  0.055556  0.000000    0.00308642  14 t-inv F
  0.277778  0.055556  0.000000    0.00308642  15 t-inv F
  0.333333  0.055556  0.000000    0.00308642  16 t-inv F
  0.388889  0.055556  0.000000    0.00308642  17 t-inv F
  0.444444  0.055556  0.000000    0.00308642  18 t-inv F
  0.111111  0.111111  0.000000    0.00308642  19 t-inv F
  0.166667  0.111111  0.000000    0.00308642  20 t-inv F
  0.222222  0.111111  0.000000    0.00308642  21 t-inv F
  0.277778  0.111111  0.000000    0.00308642  22 t-inv F
  0.333333  0.111111  0.000000    0.00308642  23 t-inv F
  0.388889  0.111111  0.000000    0.00308642  24 t-inv F
  0.444444  0.111111  0.000000    0.00308642  25 t-inv F
  0.166667  0.166667  0.000000    0.00308642  26 t-inv F
  0.222222  0.166667  0.000000    0.00308642  27 t-inv F
  0.277778  0.166667  0.000000    0.00308642  28 t-inv F
  0.333333  0.166667  0.000000    0.00308642  29 t-inv F
  0.388889  0.166667  0.000000    0.00308642  30 t-inv F
  0.222222  0.222222  0.000000    0.00308642  31 t-inv F
  0.277778  0.222222  0.000000    0.00308642  32 t-inv F
  0.333333  0.222222  0.000000    0.00308642  33 t-inv F
  0.388889  0.222222  0.000000    0.00308642  34 t-inv F
  0.277778  0.277778  0.000000    0.00308642  35 t-inv F
  0.333333  0.277778  0.000000    0.00308642  36 t-inv F
  0.333333  0.333333  0.000000    0.00308642  37 t-inv F
 -0.055556  0.055556  0.000000    0.00308642   2 t-inv F
  0.000000 -0.055556 -0.000000    0.00308642   2 t-inv F
 -0.111111  0.111111  0.000000    0.00308642   3 t-inv F
  0.000000 -0.111111 -0.000000    0.00308642   3 t-inv F
 -0.166667  0.166667  0.000000    0.00308642   4 t-inv F
  0.000000 -0.166667 -0.000000    0.00308642   4 t-inv F
 -0.222222  0.222222  0.000000    0.00308642   5 t-inv F
  0.000000 -0.222222 -0.000000    0.00308642   5 t-inv F
 -0.277778  0.277778  0.000000    0.00308642   6 t-inv F
  0.000000 -0.277778 -0.000000    0.00308642   6 t-inv F
 -0.333333  0.333333  0.000000    0.00308642   7 t-inv F
  0.000000 -0.333333 -0.000000    0.00308642   7 t-inv F
 -0.388889  0.388889  0.000000    0.00308642   8 t-inv F
  0.000000 -0.388889 -0.000000    0.00308642   8 t-inv F
 -0.444444  0.444444  0.000000    0.00308642   9 t-inv F
  0.000000 -0.444444 -0.000000    0.00308642   9 t-inv F
 -0.500000  0.500000  0.000000    0.00308642  10 t-inv F
[...]
   S         133.851          3.854         19.589          0.999
   S         136.633          3.868         19.792          1.010
   S         136.633          3.868         19.792          1.010
   S         133.851          3.854         19.589          0.999
   S         136.635          3.868         19.792          1.010

  IVDW =  20
  VDW_RADIUS =    50.000 A
  VDW_IDAMPF =  0
  VDW_S6 =     1.000
  VDW_SR =     0.940
  VDW_D =    20.000
  LVDW_EWALD = T
  Edisp (eV):   -2.51991

  FORCE on cell =-STRESS in cart. coord.  units (eV):
  Direction    XX          YY          ZZ          XY          YZ          ZX
  Alpha Z    98.01003    98.01003    98.01003
  Ewald  107673.05504107673.05504************    -0.00000     0.00000    -0.00000
  Hartree109089.82193109089.82193************    -0.00000    -0.00000    -0.00000
  E(xc)    -332.63129  -332.63130  -333.03271    -0.00000     0.00000     0.00000
  Local  ************************218631.93598    -0.00003    -0.00000     0.00000
  n-local   383.54162   383.71364   392.58082    -0.54433    -0.00000    -0.00000
  augment  -126.14734  -126.14729  -129.22652     0.00004     0.00000     0.00000
  Kinetic  1587.17036  1596.07829  1605.68670   -40.73738     0.00000     0.00000
  Fock        0.00000     0.00000     0.00000     0.00000     0.00000     0.00000
  vdW        -2.64427    -2.64427    -2.57197     0.00000     0.00000     0.00000
  Total      -3.59626    -3.59626    -2.63992    -0.00000     0.00000    -0.00000
  in kB     -13.12491   -13.12491    -9.63466    -0.00000     0.00000    -0.00000

 VOLUME and BASIS-vectors are now :
  energy-cutoff  :      344.91
  volume of cell :      439.00
      direct lattice vectors                 reciprocal lattice vectors
     3.184066465  0.000000000  0.000000000     0.314063796  0.181324817  0.000000000
    -1.592033232  2.757482446  0.000000000     0.000000000  0.362649634  0.000000000
     0.000000000  0.000000000 50.000000000     0.000000000  0.000000000  0.020000000

  length of vectors
     3.184066465  3.184066465 50.000000000     0.362649634  0.362649634  0.020000000

 FORCES acting on ions
    electron-ion (+dipol)            ewald-force                    non-local-force                 convergence-correction
   0.238E-07 0.104E-07 0.473E+04   0.123E-10 -.701E-11 -.473E+04   0.416E-16 0.000E+00 0.153E-01   -.850E-10 0.491E-10 0.352E-05
   -.496E-08 0.288E-08 0.993E-10   -.124E-10 0.710E-11 0.114E-12   0.486E-16 0.000E+00 0.000E+00   0.273E-10 -.158E-10 -.248E-12
   0.291E-08 -.258E-07 -.473E+04   0.123E-10 -.701E-11 0.473E+04   0.555E-16 0.000E+00 -.153E-01   -.850E-10 0.491E-10 -.352E-05
   -.109E-06 0.936E-07 0.116E+04   -.628E-11 0.361E-11 -.116E+04   -.451E-16 0.694E-17 -.775E+01   -.119E-11 0.679E-12 0.111E-05
   -.111E-06 0.130E-07 0.289E+04   -.608E-11 0.349E-11 -.290E+04   -.147E-16 -.121E-16 0.772E+01   0.236E-12 -.144E-12 0.215E-05
   0.129E-06 -.348E-07 -.865E+03   0.629E-11 -.359E-11 0.873E+03   0.191E-16 -.520E-16 -.774E+01   0.283E-12 -.156E-12 0.135E-05
   0.946E-07 -.941E-07 0.865E+03   0.629E-11 -.359E-11 -.873E+03   0.173E-17 0.694E-17 0.774E+01   0.267E-12 -.146E-12 -.135E-05
   -.670E-07 0.900E-07 -.289E+04   -.608E-11 0.349E-11 0.290E+04   -.867E-17 -.139E-16 -.772E+01   0.245E-12 -.150E-12 -.215E-05
   -.135E-06 0.473E-07 -.116E+04   -.628E-11 0.362E-11 0.116E+04   -.382E-16 -.347E-17 0.775E+01   -.120E-11 0.691E-12 -.111E-05
   -.177E-06 0.102E-06 0.220E-09   0.470E-13 0.115E-12 0.136E-11   0.598E-16 -.677E-16 0.000E+00   -.144E-09 0.832E-10 -.895E-11

 POSITION                                       TOTAL-FORCE (eV/Angst)
     -0.00000      0.91916     18.85000         0.000000      0.000000      0.083038
      1.59203      1.83832     25.00000         0.000000     -0.000000     -0.000000
     -0.00000      0.91916     31.15000         0.000000     -0.000000     -0.083038
      1.59203      1.83832     20.41356        -0.000000      0.000000     -0.092628
      1.59203      1.83832     17.28644         0.000000     -0.000000      0.043085
     -0.00000      0.91916     26.56356        -0.000000     -0.000000     -0.107745
     -0.00000      0.91916     23.43644         0.000000     -0.000000      0.107745
      1.59203      1.83832     32.71356         0.000000     -0.000000     -0.043085
      1.59203      1.83832     29.58644        -0.000000      0.000000      0.092628
    total drift:                               -0.000000      0.000000      0.000000

  FREE ENERGIE OF THE ION-ELECTRON SYSTEM (eV)
  free  energy   TOTEN  =       -70.23348122 eV

  energy  without entropy=      -70.23348122  energy(sigma->0) =      -70.23348122

 Linear response reoptimize wavefunctions
 Linear response G [H, r] |phi>, progress :
  Direction:   1

[...]

  free energy    TOTEN  =      -301.64521872 eV

[...]

 Linear response G [H, r] |phi>, progress :
  Direction:   2

[...]

 Linear response G [H, r] |phi>, progress :
  Direction:   3

[...]

  free energy    TOTEN  =      -326.22108481 eV

[...]

 Linear response to external field (no local field effect), progress :
  Direction:   1
  LATTYP: Found a hexagonal cell.
 ALAT       =     3.1840664647
 C/A-ratio  =    15.7031897903

[...]

The dynamic configuration has the point symmetry C_1h.

[...]

 Free energy of the ion-electron system (eV)
  -Hartree energ DENC   =         0.00000000
  -V(xc)+E(xc)   XCENC  =         0.00000000
  PAW double counting   =         0.00000000        0.00000000
  entropy T*S    EENTRO =         0.00000000
  eigenvalues    EBANDS =        -5.46266845
  free energy    TOTEN  =        -5.46266845 eV

  energy without entropy =       -5.46266845

[...]

 change of polarisation eV/A/(eV/A) component  1 :    13.724    -1.558    -0.000
 dielectric tensor                  component  1 :     6.657    -0.642    -0.000

[...]

The dynamic configuration has the point symmetry C_2v.

[...]

 Linear response to external field (no local field effect), progress :
  Direction:   3
  LATTYP: Found a hexagonal cell.
 ALAT       =     3.1840664647
 C/A-ratio  =    15.7031897903

[...]

The dynamic configuration has the point symmetry C_1h.
 The point group associated with its full space group is C_3v.

[...]

 HEAD OF MICROSCOPIC STATIC DIELECTRIC TENSOR (INDEPENDENT PARTICLE, excluding Hartree and local field effects)
           6.617110    -0.000000     0.000000
           0.000000     6.617110     0.000000
          -0.000000     0.000000     4.094383

 Linear response to external field, progress :
  Direction:   1
  LATTYP: Found a hexagonal cell.
 ALAT       =     3.1840664647
 C/A-ratio  =    15.7031897903

[...]

The dynamic configuration has the point symmetry C_1h.

[...]

  Parameters of vdW forcefield:
            C6ts              R0ts           ALPHAts        RELVOL
            (au)              (au)            (au)
   Mo       1059.773          4.121         89.744          1.015
   Mo       1070.530          4.128         90.198          1.020
   Mo       1059.773          4.121         89.744          1.015
   S         136.635          3.868         19.792          1.010
   S         133.851          3.854         19.589          0.999
   S         136.633          3.868         19.792          1.010
   S         136.633          3.868         19.792          1.010
   S         133.851          3.854         19.589          0.999
   S         136.635          3.868         19.792          1.010
  Edisp (eV):   -2.51991

[...]

 PIEZOELECTRIC TENSOR FIELD DIRECTION 1  (e Angst)
    -0.00720 -1.70169  0.00000           ( -0.00005 -0.03426  0.00000)
    -1.70169  0.00613  0.00000           ( -0.03426  0.00011  0.00000)
     0.00000  0.00000  0.00012           (  0.00000  0.00000  0.00005)

 PIEZOELECTRIC TENSOR FIELD DIRECTION 1  (C/m^2)
    -0.00026 -0.06210  0.00000
    -0.06210  0.00022  0.00000
     0.00000  0.00000  0.00000

      POSITION         DIRECTION 1           BORN EFFECTIVE CHARGE    (rigid.aug.   ionic)
     -0.00000      0.91916     18.85000    -0.98416 -0.00075 -0.00000 (  0.17438 14.00000)
      1.59203      1.83832     25.00000    -0.97566  0.00077  0.00000 (  0.17426 14.00000)
     -0.00000      0.91916     31.15000    -0.98416 -0.00075  0.00000 (  0.17438 14.00000)
      1.59203      1.83832     20.41356     0.47778 -0.00025 -0.00020 (  0.66111  6.00000)
      1.59203      1.83832     17.28644     0.50097 -0.00026  0.00013 (  0.66041  6.00000)
     -0.00000      0.91916     26.56356     0.48522  0.00026 -0.00020 (  0.66112  6.00000)
     -0.00000      0.91916     23.43644     0.48522  0.00026  0.00020 (  0.66112  6.00000)
      1.59203      1.83832     32.71356     0.50097 -0.00026 -0.00013 (  0.66041  6.00000)
      1.59203      1.83832     29.58644     0.47778 -0.00025  0.00020 (  0.66111  6.00000)
    total drift (improves with k-points):  -0.01604 -0.00124 -0.00000

[...]

The dynamic configuration has the point symmetry C_2v.

[...]

 Linear response to external field, progress :
  Direction:   3
  LATTYP: Found a hexagonal cell.
 ALAT       =     3.1840664647
 C/A-ratio  =    15.7031897903

[...]

The dynamic configuration has the point symmetry C_1h.
 The point group associated with its full space group is C_3v.

[...]

----------------------------------------- Iteration    3(  26)  ---------------------------------------

 Broyden mixing:
  rms(total) = 0.35995E-06    rms(broyden)= 0.35977E-06
  rms(prec ) = 0.41981E-06
  weight for this iteration     100.00

 eigenvalues of (default mixing * dielectric matrix)
  average eigenvalue GAMMA=   2.3007
  8.2642  8.2642  5.4815  4.9753  3.2431  3.2431  2.4695  2.4695  1.9162  1.9162
  1.4676  1.3157  1.3157  1.0713  0.9601  0.9601  0.8734  0.8734  0.8694  0.7465
  0.5863  0.7165  0.6034  0.6146

 Free energy of the ion-electron system (eV)
  -Hartree energ DENC   =        -0.43621025
  -V(xc)+E(xc)   XCENC  =         0.00533541
  PAW double counting   =         0.01385414       -0.01387062
  entropy T*S    EENTRO =         0.00000000
  eigenvalues    EBANDS =        -0.12387378
  free energy    TOTEN  =        -0.55476510 eV

  energy without entropy =       -0.55476510

------------------------ aborting loop because EDIFF is reached ----------------------------------------

 change of polarisation eV/A/(eV/A) component  3 :     0.000     0.000     1.089
 dielectric tensor                  component  3 :     0.000     0.000     1.449

[...]

  Hirshfeld charges:
            ion         q(e)
      1     Mo          0.374
      2     Mo          0.372
      3     Mo          0.374
      4     S          -0.186
      5     S          -0.187
      6     S          -0.186
      7     S          -0.186
      8     S          -0.187
      9     S          -0.186

  Tkatchenko/Scheffler method for vdW energy calculation

  Parameters of vdW forcefield:
            C6ts              R0ts           ALPHAts        RELVOL
            (au)              (au)            (au)
   Mo       1059.773          4.121         89.744          1.015
   Mo       1070.530          4.128         90.198          1.020
   Mo       1059.773          4.121         89.744          1.015
   S         136.635          3.868         19.792          1.010
   S         133.851          3.854         19.589          0.999
   S         136.633          3.868         19.792          1.010
   S         136.633          3.868         19.792          1.010
   S         133.851          3.854         19.589          0.999
   S         136.635          3.868         19.792          1.010
  Edisp (eV):   -2.51991

 PIEZOELECTRIC TENSOR FIELD DIRECTION 3  (e Angst)
    -0.00001 -0.00000 -0.00000           (  0.00000 -0.00000 -0.00000)
     0.00000 -0.00001 -0.00000           (  0.00000  0.00000 -0.00000)
     0.00000  0.00000 -0.00001           ( -0.00000 -0.00000  0.00000)

 PIEZOELECTRIC TENSOR FIELD DIRECTION 3  (C/m^2)
    -0.00000 -0.00000 -0.00000
     0.00000 -0.00000 -0.00000
     0.00000  0.00000 -0.00000

      POSITION         DIRECTION 3           BORN EFFECTIVE CHARGE    (rigid.aug.   ionic)
     -0.00000      0.91916     18.85000     0.00000  0.00000-17.01883 (  0.17438 14.00000)
      1.59203      1.83832     25.00000     0.00000 -0.00000 -0.09691 (  0.17426 14.00000)
     -0.00000      0.91916     31.15000    -0.00000  0.00000-17.01881 (  0.17438 14.00000)
      1.59203      1.83832     20.41356    -0.00000  0.00000 -0.27877 (  0.66111  6.00000)
      1.59203      1.83832     17.28644    -0.00000  0.00000  0.10656 (  0.66041  6.00000)
     -0.00000      0.91916     26.56356    -0.00000  0.00000  0.10428 (  0.66112  6.00000)
     -0.00000      0.91916     23.43644    -0.00000  0.00000  0.10428 (  0.66112  6.00000)
      1.59203      1.83832     32.71356     0.00000 -0.00000  0.10656 (  0.66041  6.00000)
      1.59203      1.83832     29.58644    -0.00000  0.00000 -0.27877 (  0.66111  6.00000)
    total drift (improves with k-points):  -0.00000  0.00000-34.27042

[...]

 MACROSCOPIC STATIC DIELECTRIC TENSOR (including local field effects in DFT)
           6.294665     0.000000    -0.000000
          -0.000000     6.294665     0.000000
           0.000000    -0.000000     1.448976

  LATTYP: Found a hexagonal cell.
 ALAT       =     3.1840664647
 C/A-ratio  =    15.7031897903

  Lattice vectors:

 A1 = (   3.1840664647,   0.0000000000,   0.0000000000)
 A2 = (  -1.5920332323,   2.7574824458,   0.0000000000)
 A3 = (   0.0000000000,   0.0000000000,  50.0000000000)

Analysis of symmetry for initial positions (statically):
 Subroutine PRICEL returns:
 Original cell was already a primitive cell.

[...]

The static configuration has the point symmetry C_2v.
 The point group associated with its full space group is D_3h.

Analysis of symmetry for dynamics (positions and initial velocities):
 Subroutine PRICEL returns:
 Original cell was already a primitive cell.

 Routine SETGRP: Setting up the symmetry group for a
 hexagonal supercell.

 Subroutine GETGRP returns: Found 12 space group operations
 (whereof  4 operations were pure point group operations)
 out of a pool of 24 trial point group operations.

The dynamic configuration has the point symmetry C_2v.
 The point group associated with its full space group is D_3h.

 Subroutine INISYM returns: Found 12 space group operations
 (whereof  4 operations are pure point group operations),
 and found     1 'primitive' translations

 MACROSCOPIC STATIC DIELECTRIC TENSOR (including local field effects in DFT)
           6.294665     0.000000    -0.000000
          -0.000000     6.294665     0.000000
           0.000000    -0.000000     1.448976

 PIEZOELECTRIC TENSOR  for field in x, y, z        (e  Angst)
          XX          YY          ZZ          XY          YZ          ZX
  x    -0.00720     0.00613     0.00012    -1.70169     0.00000     0.00000
  y    -1.70870     1.71188     0.00012     0.00000     0.00000     0.00000
  z    -0.00001    -0.00001    -0.00001     0.00000     0.00000    -0.00000

 PIEZOELECTRIC TENSOR  for field in x, y, z        (C/m^2)
          XX          YY          ZZ          XY          YZ          ZX
  x     0.00000     0.00000     0.00000    -0.06226     0.00000     0.00000
  y    -0.06226     0.06226     0.00000     0.00000     0.00000     0.00000
  z     0.00000     0.00000     0.00000     0.00000     0.00000    -0.00000

 BORN EFFECTIVE CHARGES (in e, cummulative output)
 ion    1
    1    -0.98416    -0.00075    -0.00000
    2    -0.00000    -0.98473     0.00000
    3     0.00000     0.00000   -17.01883
 ion    2
    1    -0.97566     0.00077     0.00000
    2    -0.00000    -0.97510     0.00000
    3     0.00000    -0.00000    -0.09691
 ion    3
    1    -0.98416    -0.00075     0.00000
    2    -0.00000    -0.98473    -0.00000
    3    -0.00000     0.00000   -17.01881
 ion    4
    1     0.47778    -0.00025    -0.00020
    2    -0.00000     0.47817     0.00050
    3    -0.00000     0.00000    -0.27877
 ion    5
    1     0.50097    -0.00026     0.00013
    2     0.00000     0.50130    -0.00035
    3    -0.00000     0.00000     0.10656
 ion    6
    1     0.48522     0.00026    -0.00020
    2    -0.00000     0.48479     0.00050
    3    -0.00000     0.00000     0.10428
 ion    7
    1     0.48522     0.00026     0.00020
    2    -0.00000     0.48479    -0.00050
    3    -0.00000     0.00000     0.10428
 ion    8
    1     0.50097    -0.00026    -0.00013
    2     0.00000     0.50130     0.00035
    3     0.00000    -0.00000     0.10656
 ion    9
    1     0.47778    -0.00025     0.00020
    2    -0.00000     0.47817    -0.00050
    3    -0.00000     0.00000    -0.27877

 writing wavefunctions
 BZINTS: Fermi energy: -0.510832; 78.000000 electrons
         Band energy:***********;  BLOECHL correction:  0.000000