 vasp.5.4.1 24Jun15 (build Apr 13 2016 13:07:19) complex

 executed on           IFC91_ompi date 2019.09.14  02:39:34

 INCAR:
 POTCAR:    PAW_PBE Mo_sv_GW 05Dec2013
 POTCAR:    PAW_PBE Te_GW 22Mar2012

 POTCAR:    PAW_PBE Mo_sv_GW 05Dec2013
   VRHFIN =Mo: 4s4p5s4d

   TITEL  = PAW_PBE Mo_sv_GW 05Dec2013
   POMASS =   95.940; ZVAL   =   14.000    mass and valenz
   ENMAX  =  344.914; ENMIN  =  258.686 eV

 POTCAR:    PAW_PBE Te_GW 22Mar2012
   VRHFIN =Te: s2p4

   TITEL  = PAW_PBE Te_GW 22Mar2012
   POMASS =  127.600; ZVAL   =    6.000    mass and valenz
   ENMAX  =  174.982; ENMIN  =  131.236 eV

  PAW_PBE Mo_sv_GW 05Dec2013            :
  PAW_PBE Te_GW 22Mar2012               :

 POSCAR: Mo Te
  positions in cartesian coordinates
 exchange correlation table for  LEXCH =        8
   RHO(1)=    0.500       N(1)  =     2000
   RHO(2)=  100.500       N(2)  =     4000

 ion  position               nearest neighbor table
   1  0.167  0.333  0.151-   7 2.73   7 2.73   7 2.73   8 2.73   8 2.73   8 2.73
   2  0.833  0.667  0.291-   9 2.73  10 2.73   9 2.73  10 2.73   9 2.73  10 2.73
   3  0.167  0.333  0.430-  11 2.73  12 2.73  11 2.73  12 2.73  11 2.73  12 2.73
   4  0.833  0.667  0.570-  13 2.73  14 2.73  13 2.73  14 2.73  13 2.73  14 2.73
   5  0.167  0.333  0.709-  15 2.73  16 2.73  15 2.73  16 2.73  15 2.73  16 2.73
   6  0.833  0.667  0.849-  17 2.73  17 2.73  17 2.73  18 2.73  18 2.73  18 2.73
   7  0.833  0.667  0.187-   1 2.73   1 2.73   1 2.73   8 3.61
   8  0.833  0.667  0.115-   1 2.73   1 2.73   1 2.73   7 3.61
   9  0.167  0.333  0.327-   2 2.73   2 2.73   2 2.73  10 3.61
  10  0.167  0.333  0.254-   2 2.73   2 2.73   2 2.73   9 3.61
  11  0.833  0.667  0.466-   3 2.73   3 2.73   3 2.73  12 3.61
  12  0.833  0.667  0.394-   3 2.73   3 2.73   3 2.73  11 3.61
  13  0.167  0.333  0.606-   4 2.73   4 2.73   4 2.73  14 3.61
  14  0.167  0.333  0.534-   4 2.73   4 2.73   4 2.73  13 3.61
  15  0.833  0.667  0.746-   5 2.73   5 2.73   5 2.73  16 3.61
  16  0.833  0.667  0.673-   5 2.73   5 2.73   5 2.73  15 3.61
  17  0.167  0.333  0.885-   6 2.73   6 2.73   6 2.73  18 3.61
  18  0.167  0.333  0.813-   6 2.73   6 2.73   6 2.73  17 3.61

  LATTYP: Found a hexagonal cell.
 ALAT       =     3.5473923118
 C/A-ratio  =    14.0948605637

  Lattice vectors:

 A1 = (   3.5473923118,   0.0000000000,   0.0000000000)
 A2 = (  -1.7736961559,   3.0721318592,   0.0000000000)
 A3 = (   0.0000000000,   0.0000000000,  50.0000000000)

Analysis of symmetry for initial positions (statically):
 Subroutine PRICEL returns:
 Original cell was already a primitive cell.

 Routine SETGRP: Setting up the symmetry group for a
 hexagonal supercell.

 Subroutine GETGRP returns: Found 12 space group operations
 (whereof  4 operations were pure point group operations)
 out of a pool of 24 trial point group operations.

The static configuration has the point symmetry C_2h.
 The point group associated with its full space group is D_3d.

Analysis of symmetry for dynamics (positions and initial velocities):
 Subroutine PRICEL returns:
 Original cell was already a primitive cell.

[...]

The dynamic configuration has the point symmetry C_2h.
 The point group associated with its full space group is D_3d.

 Subroutine INISYM returns: Found 12 space group operations
 (whereof  4 operations are pure point group operations),
 and found     1 'primitive' translations

 KPOINTS: KPOINTS created by Atomic Simulation Env

Automatic generation of k-mesh.
Space group operators:
 irot       det(A)        alpha          n_x          n_y          n_z        tau_x        tau_y        tau_z
    1     1.000000     0.000001     1.000000     0.000000     0.000000     0.000000     0.000000     0.000000
    2    -1.000000     0.000001     1.000000     0.000000     0.000000     0.000000     0.000000     0.000000
    3     1.000000   180.000000     1.000000     0.000000     0.000000     0.000000     0.000000     0.000000
    4    -1.000000   180.000000     1.000000     0.000000     0.000000     0.000000     0.000000     0.000000
    5     1.000000   120.000000     0.000000     0.000000    -1.000000     0.500000     0.500000     0.000000
    6    -1.000000   120.000000     0.000000     0.000000    -1.000000     0.500000     0.500000     0.000000
    7     1.000000   120.000000     0.000000     0.000000     1.000000     0.000000     0.500000     0.000000
    8    -1.000000   120.000000     0.000000     0.000000     1.000000     0.000000     0.500000     0.000000
    9     1.000000   180.000000     0.500000    -0.866025     0.000000     0.000000     0.500000     0.000000
   10    -1.000000   180.000000     0.500000    -0.866025     0.000000     0.000000     0.500000     0.000000
   11     1.000000   180.000000    -0.500000    -0.866025     0.000000     0.500000     0.500000     0.000000
   12    -1.000000   180.000000    -0.500000    -0.866025     0.000000     0.500000     0.500000     0.000000

 Subroutine IBZKPT returns following result:

 Found     37 irreducible k-points:

 Following reciprocal coordinates:
            Coordinates               Weight
  0.000000  0.000000  0.000000      1.000000
  0.055556  0.000000  0.000000      6.000000
  0.111111  0.000000  0.000000      6.000000
  0.166667  0.000000  0.000000      6.000000
  0.222222  0.000000  0.000000      6.000000
  0.277778  0.000000  0.000000      6.000000
  0.333333  0.000000  0.000000      6.000000
  0.388889  0.000000  0.000000      6.000000
  0.444444  0.000000  0.000000      6.000000
  0.500000  0.000000  0.000000      3.000000
  0.055556  0.055556  0.000000      6.000000
  0.111111  0.055556  0.000000     12.000000
  0.166667  0.055556  0.000000     12.000000
  0.222222  0.055556  0.000000     12.000000
  0.277778  0.055556  0.000000     12.000000
  0.333333  0.055556  0.000000     12.000000
  0.388889  0.055556  0.000000     12.000000
  0.444444  0.055556  0.000000     12.000000
  0.111111  0.111111  0.000000      6.000000
  0.166667  0.111111  0.000000     12.000000
  0.222222  0.111111  0.000000     12.000000
  0.277778  0.111111  0.000000     12.000000
  0.333333  0.111111  0.000000     12.000000
  0.388889  0.111111  0.000000     12.000000
  0.444444  0.111111  0.000000      6.000000
  0.166667  0.166667  0.000000      6.000000
  0.222222  0.166667  0.000000     12.000000
  0.277778  0.166667  0.000000     12.000000
  0.333333  0.166667  0.000000     12.000000
  0.388889  0.166667  0.000000     12.000000
  0.222222  0.222222  0.000000      6.000000
  0.277778  0.222222  0.000000     12.000000
  0.333333  0.222222  0.000000     12.000000
  0.388889  0.222222  0.000000      6.000000
  0.277778  0.277778  0.000000      6.000000
  0.333333  0.277778  0.000000     12.000000
  0.333333  0.333333  0.000000      2.000000

 Following cartesian coordinates:
            Coordinates               Weight
  0.000000  0.000000  0.000000      1.000000
  0.015661  0.009042  0.000000      6.000000
  0.031322  0.018084  0.000000      6.000000
  0.046983  0.027126  0.000000      6.000000
  0.062644  0.036167  0.000000      6.000000
  0.078305  0.045209  0.000000      6.000000
  0.093966  0.054251  0.000000      6.000000
  0.109627  0.063293  0.000000      6.000000
  0.125288  0.072335  0.000000      6.000000
  0.140949  0.081377  0.000000      3.000000
  0.015661  0.027126  0.000000      6.000000
  0.031322  0.036167  0.000000     12.000000
  0.046983  0.045209  0.000000     12.000000
  0.062644  0.054251  0.000000     12.000000
  0.078305  0.063293  0.000000     12.000000
  0.093966  0.072335  0.000000     12.000000
  0.109627  0.081377  0.000000     12.000000
  0.125288  0.090419  0.000000     12.000000
  0.031322  0.054251  0.000000      6.000000
  0.046983  0.063293  0.000000     12.000000
  0.062644  0.072335  0.000000     12.000000
  0.078305  0.081377  0.000000     12.000000
  0.093966  0.090419  0.000000     12.000000
  0.109627  0.099460  0.000000     12.000000
  0.125288  0.108502  0.000000      6.000000
  0.046983  0.081377  0.000000      6.000000
  0.062644  0.090419  0.000000     12.000000
  0.078305  0.099460  0.000000     12.000000
  0.093966  0.108502  0.000000     12.000000
  0.109627  0.117544  0.000000     12.000000
  0.062644  0.108502  0.000000      6.000000
  0.078305  0.117544  0.000000     12.000000
  0.093966  0.126586  0.000000     12.000000
  0.109627  0.135628  0.000000      6.000000
  0.078305  0.135628  0.000000      6.000000
  0.093966  0.144670  0.000000     12.000000
  0.093966  0.162753  0.000000      2.000000

 TETIRR: Found    169 inequivalent tetrahedra from     1944

 Subroutine IBZKPT_HF returns following result:

 Found    324 k-points in 1st BZ
 the following    324 k-points will be used (e.g. in the exchange kernel)
 Following reciprocal coordinates:   # in IRBZ
  0.000000  0.000000  0.000000    0.00308642   1 t-inv F
  0.055556  0.000000  0.000000    0.00308642   2 t-inv F
  0.111111  0.000000  0.000000    0.00308642   3 t-inv F
  0.166667  0.000000  0.000000    0.00308642   4 t-inv F
  0.222222  0.000000  0.000000    0.00308642   5 t-inv F
  0.277778  0.000000  0.000000    0.00308642   6 t-inv F
  0.333333  0.000000  0.000000    0.00308642   7 t-inv F
  0.388889  0.000000  0.000000    0.00308642   8 t-inv F
  0.444444  0.000000  0.000000    0.00308642   9 t-inv F
  0.500000  0.000000  0.000000    0.00308642  10 t-inv F
  0.055556  0.055556  0.000000    0.00308642  11 t-inv F
  0.111111  0.055556  0.000000    0.00308642  12 t-inv F
  0.166667  0.055556  0.000000    0.00308642  13 t-inv F
  0.222222  0.055556  0.000000    0.00308642  14 t-inv F
  0.277778  0.055556  0.000000    0.00308642  15 t-inv F
  0.333333  0.055556  0.000000    0.00308642  16 t-inv F
  0.388889  0.055556  0.000000    0.00308642  17 t-inv F
  0.444444  0.055556  0.000000    0.00308642  18 t-inv F
  0.111111  0.111111  0.000000    0.00308642  19 t-inv F
  0.166667  0.111111  0.000000    0.00308642  20 t-inv F
  0.222222  0.111111  0.000000    0.00308642  21 t-inv F
  0.277778  0.111111  0.000000    0.00308642  22 t-inv F
  0.333333  0.111111  0.000000    0.00308642  23 t-inv F
  0.388889  0.111111  0.000000    0.00308642  24 t-inv F
  0.444444  0.111111  0.000000    0.00308642  25 t-inv F
  0.166667  0.166667  0.000000    0.00308642  26 t-inv F
  0.222222  0.166667  0.000000    0.00308642  27 t-inv F
  0.277778  0.166667  0.000000    0.00308642  28 t-inv F
  0.333333  0.166667  0.000000    0.00308642  29 t-inv F
  0.388889  0.166667  0.000000    0.00308642  30 t-inv F
  0.222222  0.222222  0.000000    0.00308642  31 t-inv F
  0.277778  0.222222  0.000000    0.00308642  32 t-inv F
  0.333333  0.222222  0.000000    0.00308642  33 t-inv F
  0.388889  0.222222  0.000000    0.00308642  34 t-inv F
  0.277778  0.277778  0.000000    0.00308642  35 t-inv F
  0.333333  0.277778  0.000000    0.00308642  36 t-inv F
  0.333333  0.333333  0.000000    0.00308642  37 t-inv F
 -0.055556 -0.000000 -0.000000    0.00308642   2 t-inv F
  0.055556 -0.055556 -0.000000    0.00308642   2 t-inv F
 -0.055556  0.055556  0.000000    0.00308642   2 t-inv F
  0.000000 -0.055556  0.000000    0.00308642   2 t-inv F
 -0.000000  0.055556 -0.000000    0.00308642   2 t-inv F
[...]
     -0.00000      1.02404     40.64490         0.000000      0.000000      0.082886
    total drift:                                0.000000      0.000000     -0.000000

  FREE ENERGIE OF THE ION-ELECTRON SYSTEM (eV)
  free  energy   TOTEN  =      -118.98961155 eV

  energy  without entropy=     -118.98961155  energy(sigma->0) =     -118.98961155

 Linear response reoptimize wavefunctions
 Linear response G [H, r] |phi>, progress :
  Direction:   1

[...]

  free energy    TOTEN  =      -748.05581359 eV

[...]

 Linear response G [H, r] |phi>, progress :
  Direction:   2

[...]

 Linear response G [H, r] |phi>, progress :
  Direction:   3

[...]

  free energy    TOTEN  =      -822.30954464 eV

[...]

 Linear response to external field (no local field effect), progress :
  Direction:   1
  LATTYP: Found a hexagonal cell.
 ALAT       =     3.5473923118
 C/A-ratio  =    14.0948605637

[...]

The dynamic configuration has the point symmetry C_2 .

[...]

 Free energy of the ion-electron system (eV)
  -Hartree energ DENC   =         0.00000000
  -V(xc)+E(xc)   XCENC  =         0.00000000
  PAW double counting   =         0.00000000        0.00000000
  entropy T*S    EENTRO =         0.00000000
  eigenvalues    EBANDS =       -14.23030047
  free energy    TOTEN  =       -14.23030047 eV

  energy without entropy =      -14.23030047

[...]

 change of polarisation eV/A/(eV/A) component  1 :    49.240    -1.426    -0.217
 dielectric tensor                  component  1 :    17.352    -0.474    -0.072

[...]

The dynamic configuration has the point symmetry C_1h.

[...]

 Linear response to external field (no local field effect), progress :
  Direction:   3
  LATTYP: Found a hexagonal cell.
 ALAT       =     3.5473923118
 C/A-ratio  =    14.0948605637

[...]

The dynamic configuration has the point symmetry C_1h.
 The point group associated with its full space group is C_3v.

[...]

 HEAD OF MICROSCOPIC STATIC DIELECTRIC TENSOR (INDEPENDENT PARTICLE, excluding Hartree and local field effects)
          17.774044    -0.000000    -0.000000
          -0.000000    17.774044     0.000000
          -0.000000     0.000000    11.465565

 Linear response to external field, progress :
  Direction:   1
  LATTYP: Found a hexagonal cell.
 ALAT       =     3.5473923118
 C/A-ratio  =    14.0948605637

[...]

The dynamic configuration has the point symmetry C_2 .

[...]

  Parameters of vdW forcefield:
            C6ts              R0ts           ALPHAts        RELVOL
            (au)              (au)            (au)
   Mo       1114.303          4.156         92.024          1.041
   Mo       1118.981          4.159         92.217          1.043
   Mo       1118.997          4.159         92.217          1.043
   Mo       1118.997          4.159         92.217          1.043
   Mo       1118.981          4.159         92.217          1.043
   Mo       1114.303          4.156         92.024          1.041
   Te        411.617          4.241         38.385          1.020
   Te        403.997          4.228         38.028          1.010
   Te        411.642          4.241         38.386          1.020
   Te        411.617          4.241         38.385          1.020
   Te        411.647          4.241         38.386          1.020
   Te        411.641          4.241         38.386          1.020
   Te        411.641          4.241         38.386          1.020
   Te        411.647          4.241         38.386          1.020
   Te        411.617          4.241         38.385          1.020
   Te        411.642          4.241         38.386          1.020
   Te        403.997          4.228         38.028          1.010
   Te        411.617          4.241         38.385          1.020
  Edisp (eV):   -6.16916

[...]

 PIEZOELECTRIC TENSOR FIELD DIRECTION 1  (e Angst)
     0.00350  0.00000  0.00000           ( -0.00240  0.00000  0.00000)
     0.00000  0.00351  0.00015           (  0.00000  0.00119  0.00002)
     0.00000  0.00016 -0.00418           (  0.00000  0.00002 -0.00056)

 PIEZOELECTRIC TENSOR FIELD DIRECTION 1  (C/m^2)
     0.00010  0.00000  0.00000
     0.00000  0.00010  0.00000
     0.00000  0.00000 -0.00012

      POSITION         DIRECTION 1           BORN EFFECTIVE CHARGE    (rigid.aug.   ionic)
     -0.00000      1.02404      7.55000    -3.24919 -0.00007  0.00003 (  0.16211 14.00000)
      1.77370      2.04809     14.53000    -3.22705  0.00005  0.00001 (  0.16197 14.00000)
     -0.00000      1.02404     21.51000    -3.22628 -0.00005 -0.00000 (  0.16197 14.00000)
      1.77370      2.04809     28.49000    -3.22628  0.00005  0.00000 (  0.16197 14.00000)
     -0.00000      1.02404     35.47000    -3.22705 -0.00005 -0.00001 (  0.16197 14.00000)
      1.77370      2.04809     42.45000    -3.24919  0.00007 -0.00003 (  0.16211 14.00000)
      1.77370      2.04809      9.35510     1.59309 -0.00194  0.00028 (  1.18462  6.00000)
      1.77370      2.04809      5.74490     1.60182 -0.00175 -0.00012 (  1.18399  6.00000)
     -0.00000      1.02404     16.33510     1.58692  0.00197  0.00027 (  1.18459  6.00000)
     -0.00000      1.02404     12.72490     1.58878  0.00194 -0.00028 (  1.18455  6.00000)
      1.77370      2.04809     23.31510     1.58698 -0.00195  0.00028 (  1.18459  6.00000)
      1.77370      2.04809     19.70490     1.58696 -0.00196 -0.00027 (  1.18459  6.00000)
     -0.00000      1.02404     30.29510     1.58696  0.00196  0.00027 (  1.18459  6.00000)
     -0.00000      1.02404     26.68490     1.58698  0.00195 -0.00028 (  1.18459  6.00000)
      1.77370      2.04809     37.27510     1.58878 -0.00194  0.00028 (  1.18455  6.00000)
      1.77370      2.04809     33.66490     1.58692 -0.00197 -0.00027 (  1.18459  6.00000)
     -0.00000      1.02404     44.25510     1.60182  0.00175  0.00012 (  1.18399  6.00000)
     -0.00000      1.02404     40.64490     1.59309  0.00194 -0.00028 (  1.18462  6.00000)
    total drift (improves with k-points):  -0.31594 -0.00000  0.00000

[...]

The dynamic configuration has the point symmetry C_1h.

[...]

 Linear response to external field, progress :
  Direction:   3
  LATTYP: Found a hexagonal cell.
 ALAT       =     3.5473923118
 C/A-ratio  =    14.0948605637

[...]

The dynamic configuration has the point symmetry C_1h.
 The point group associated with its full space group is C_3v.

[...]

----------------------------------------- Iteration    3(  23)  ---------------------------------------

 Broyden mixing:
  rms(total) = 0.78993E-06    rms(broyden)= 0.78925E-06
  rms(prec ) = 0.80967E-06
  weight for this iteration     100.00

 eigenvalues of (default mixing * dielectric matrix)
  average eigenvalue GAMMA=   1.6730
  6.8085  4.1923  3.2477  2.9375  2.4772  1.9590  1.9590  1.2611  1.2611  1.0557
  1.0557  1.0925  0.8831  0.8831  0.7751  0.6473  0.6176  0.5323  0.5058  0.5006
  0.4813

 Free energy of the ion-electron system (eV)
  -Hartree energ DENC   =        -2.96385002
  -V(xc)+E(xc)   XCENC  =         0.08259836
  PAW double counting   =         0.20842529       -0.20538615
  entropy T*S    EENTRO =         0.00000000
  eigenvalues    EBANDS =        -2.03524935
  free energy    TOTEN  =        -4.91346188 eV

  energy without entropy =       -4.91346188

------------------------ aborting loop because EDIFF is reached ----------------------------------------

 change of polarisation eV/A/(eV/A) component  3 :    -0.027     0.010     9.523
 dielectric tensor                  component  3 :    -0.009     0.003     4.162

[...]

  Hirshfeld charges:
            ion         q(e)
      1     Mo          0.242
      2     Mo          0.241
      3     Mo          0.241
      4     Mo          0.241
      5     Mo          0.241
      6     Mo          0.242
      7     Te         -0.121
      8     Te         -0.121
      9     Te         -0.120
     10     Te         -0.120
     11     Te         -0.120
     12     Te         -0.120
     13     Te         -0.120
     14     Te         -0.120
     15     Te         -0.120
     16     Te         -0.120
     17     Te         -0.121
     18     Te         -0.121

  Tkatchenko/Scheffler method for vdW energy calculation

  Parameters of vdW forcefield:
            C6ts              R0ts           ALPHAts        RELVOL
            (au)              (au)            (au)
   Mo       1114.303          4.156         92.024          1.041
   Mo       1118.981          4.159         92.217          1.043
   Mo       1118.997          4.159         92.217          1.043
   Mo       1118.997          4.159         92.217          1.043
   Mo       1118.981          4.159         92.217          1.043
   Mo       1114.303          4.156         92.024          1.041
   Te        411.617          4.241         38.385          1.020
   Te        403.998          4.228         38.028          1.010
   Te        411.641          4.241         38.386          1.020
   Te        411.617          4.241         38.385          1.020
   Te        411.646          4.241         38.386          1.020
   Te        411.642          4.241         38.386          1.020
   Te        411.641          4.241         38.386          1.020
   Te        411.647          4.241         38.386          1.020
   Te        411.617          4.241         38.385          1.020
   Te        411.642          4.241         38.386          1.020
   Te        403.997          4.228         38.028          1.010
   Te        411.617          4.241         38.385          1.020
  Edisp (eV):   -6.16916

 PIEZOELECTRIC TENSOR FIELD DIRECTION 3  (e Angst)
    -0.91187  0.00000 -0.00000           ( -0.00001  0.00000 -0.00000)
     0.00000 -0.91187 -0.00000           ( -0.00000 -0.00001 -0.00000)
    -0.00000 -0.00000 -1.14264           ( -0.00000 -0.00000  0.00001)

 PIEZOELECTRIC TENSOR FIELD DIRECTION 3  (C/m^2)
    -0.02681  0.00000 -0.00000
     0.00000 -0.02681 -0.00000
    -0.00000 -0.00000 -0.03360

      POSITION         DIRECTION 3           BORN EFFECTIVE CHARGE    (rigid.aug.   ionic)
     -0.00000      1.02404      7.55000     0.00000 -0.00000-72.06864 (  0.16211 14.00000)
      1.77370      2.04809     14.53000     0.00000 -0.00000-32.55884 (  0.16197 14.00000)
     -0.00000      1.02404     21.51000    -0.00000  0.00000 -3.50925 (  0.16197 14.00000)
      1.77370      2.04809     28.49000    -0.00000  0.00000 -3.57309 (  0.16197 14.00000)
     -0.00000      1.02404     35.47000     0.00000 -0.00000-32.37734 (  0.16197 14.00000)
      1.77370      2.04809     42.45000     0.00000 -0.00000-72.24927 (  0.16211 14.00000)
      1.77370      2.04809      9.35510     0.00000  0.00000-10.71722 (  1.18462  6.00000)
      1.77370      2.04809      5.74490     0.00000 -0.00000-20.01157 (  1.18399  6.00000)
     -0.00000      1.02404     16.33510     0.00000 -0.00000 -1.49700 (  1.18459  6.00000)
     -0.00000      1.02404     12.72490    -0.00000 -0.00000  3.14932 (  1.18455  6.00000)
      1.77370      2.04809     23.31510    -0.00000 -0.00000  1.00587 (  1.18459  6.00000)
      1.77370      2.04809     19.70490     0.00000  0.00000  1.94485 (  1.18459  6.00000)
     -0.00000      1.02404     30.29510    -0.00000 -0.00000  1.91194 (  1.18459  6.00000)
     -0.00000      1.02404     26.68490     0.00000 -0.00000  0.97706 (  1.18459  6.00000)
      1.77370      2.04809     37.27510    -0.00000 -0.00000  3.03623 (  1.18455  6.00000)
      1.77370      2.04809     33.66490    -0.00000  0.00000 -1.42266 (  1.18459  6.00000)
     -0.00000      1.02404     44.25510     0.00000 -0.00000-19.91652 (  1.18399  6.00000)
     -0.00000      1.02404     40.64490    -0.00000  0.00000-10.62898 (  1.18462  6.00000)
    total drift (improves with k-points):  -0.00000 -0.00000*********

[...]

 MACROSCOPIC STATIC DIELECTRIC TENSOR (including local field effects in DFT)
          16.998177     0.000000     0.000000
          -0.000000    16.998177     0.000000
          -0.000000    -0.000000     4.162311

  LATTYP: Found a hexagonal cell.
 ALAT       =     3.5473923118
 C/A-ratio  =    14.0948605637

  Lattice vectors:

 A1 = (   3.5473923118,   0.0000000000,   0.0000000000)
 A2 = (  -1.7736961559,   3.0721318592,   0.0000000000)
 A3 = (   0.0000000000,   0.0000000000,  50.0000000000)

Analysis of symmetry for initial positions (statically):
 Subroutine PRICEL returns:
 Original cell was already a primitive cell.

[...]

The static configuration has the point symmetry C_2h.
 The point group associated with its full space group is D_3d.

Analysis of symmetry for dynamics (positions and initial velocities):
 Subroutine PRICEL returns:
 Original cell was already a primitive cell.

 Routine SETGRP: Setting up the symmetry group for a
 hexagonal supercell.

 Subroutine GETGRP returns: Found 12 space group operations
 (whereof  4 operations were pure point group operations)
 out of a pool of 24 trial point group operations.

The dynamic configuration has the point symmetry C_2h.
 The point group associated with its full space group is D_3d.

 Subroutine INISYM returns: Found 12 space group operations
 (whereof  4 operations are pure point group operations),
 and found     1 'primitive' translations

 MACROSCOPIC STATIC DIELECTRIC TENSOR (including local field effects in DFT)
          16.998177     0.000000     0.000000
          -0.000000    16.998177     0.000000
          -0.000000    -0.000000     4.162311

 PIEZOELECTRIC TENSOR  for field in x, y, z        (e  Angst)
          XX          YY          ZZ          XY          YZ          ZX
  x     0.00350     0.00351    -0.00418     0.00000     0.00016     0.00000
  y    -0.01902     0.03847     0.00049     0.00000     0.00071     0.00000
  z    -0.91187    -0.91187    -1.14264     0.00000    -0.00000    -0.00000

 PIEZOELECTRIC TENSOR  for field in x, y, z        (C/m^2)
          XX          YY          ZZ          XY          YZ          ZX
  x     0.00000     0.00000     0.00000     0.00000     0.00000     0.00000
  y     0.00000     0.00000     0.00000     0.00000     0.00000     0.00000
  z     0.00000     0.00000     0.00000     0.00000     0.00000     0.00000

 BORN EFFECTIVE CHARGES (in e, cummulative output)
 ion    1
    1    -3.24919    -0.00007     0.00003
    2    -0.00000    -3.24976    -0.00022
    3     0.00000    -0.00000   -72.06864
 ion    2
    1    -3.22705     0.00005     0.00001
    2    -0.00000    -3.22638    -0.00001
    3     0.00000    -0.00000   -32.55884
 ion    3
    1    -3.22628    -0.00005    -0.00000
    2    -0.00000    -3.22694    -0.00002
    3    -0.00000     0.00000    -3.50925
 ion    4
    1    -3.22628     0.00005     0.00000
    2    -0.00000    -3.22561     0.00002
    3    -0.00000     0.00000    -3.57309
 ion    5
    1    -3.22705    -0.00005    -0.00001
    2     0.00000    -3.22775     0.00001
    3     0.00000    -0.00000   -32.37734
 ion    6
    1    -3.24919     0.00007    -0.00003
    2     0.00000    -3.24865     0.00024
    3     0.00000    -0.00000   -72.24927
 ion    7
    1     1.59309    -0.00194     0.00028
    2     0.00000     1.59346     0.00235
    3     0.00000     0.00000   -10.71722
 ion    8
    1     1.60182    -0.00175    -0.00012
    2     0.00000     1.60212    -0.00127
    3     0.00000    -0.00000   -20.01157
 ion    9
    1     1.58692     0.00197     0.00027
    2    -0.00000     1.58652     0.00219
    3     0.00000    -0.00000    -1.49700
 ion   10
    1     1.58878     0.00194    -0.00028
    2     0.00000     1.58840    -0.00220
    3    -0.00000    -0.00000     3.14932
 ion   11
    1     1.58698    -0.00195     0.00028
    2     0.00000     1.58736     0.00223
    3    -0.00000    -0.00000     1.00587
 ion   12
    1     1.58696    -0.00196    -0.00027
    2     0.00000     1.58738    -0.00222
    3     0.00000     0.00000     1.94485
 ion   13
    1     1.58696     0.00196     0.00027
    2     0.00000     1.58655     0.00221
    3    -0.00000    -0.00000     1.91194
 ion   14
    1     1.58698     0.00195    -0.00028
    2     0.00000     1.58661    -0.00222
    3     0.00000    -0.00000     0.97706
 ion   15
    1     1.58878    -0.00194     0.00028
    2    -0.00000     1.58915     0.00222
    3    -0.00000    -0.00000     3.03623
 ion   16
    1     1.58692    -0.00197    -0.00027
    2     0.00000     1.58732    -0.00221
    3    -0.00000     0.00000    -1.42266
 ion   17
    1     1.60182     0.00175     0.00012
    2    -0.00000     1.60152     0.00126
    3     0.00000    -0.00000   -19.91652
 ion   18
    1     1.59309     0.00194    -0.00028
    2    -0.00000     1.59272    -0.00234
    3    -0.00000     0.00000   -10.62898

 writing wavefunctions
 BZINTS: Fermi energy:  5.964777;156.000000 electrons
         Band energy:***********;  BLOECHL correction:  0.000000