 vasp.5.4.1 24Jun15 (build Apr 13 2016 13:07:19) complex

 executed on           IFC91_ompi date 2019.09.13  20:32:57

 INCAR:
 POTCAR:    PAW_PBE Mo_sv_GW 05Dec2013
 POTCAR:    PAW_PBE Se_GW 20Mar2012

 POTCAR:    PAW_PBE Mo_sv_GW 05Dec2013
   VRHFIN =Mo: 4s4p5s4d

   TITEL  = PAW_PBE Mo_sv_GW 05Dec2013
   POMASS =   95.940; ZVAL   =   14.000    mass and valenz
   ENMAX  =  344.914; ENMIN  =  258.686 eV

 POTCAR:    PAW_PBE Se_GW 20Mar2012
   VRHFIN =Se: s2p4

   TITEL  = PAW_PBE Se_GW 20Mar2012
   POMASS =   78.960; ZVAL   =    6.000    mass and valenz
   ENMAX  =  211.555; ENMIN  =  158.666 eV

  PAW_PBE Mo_sv_GW 05Dec2013            :
  PAW_PBE Se_GW 20Mar2012               :

 POSCAR: Mo Se
  positions in cartesian coordinates
 exchange correlation table for  LEXCH =        8
   RHO(1)=    0.500       N(1)  =     2000
   RHO(2)=  100.500       N(2)  =     4000

 ion  position               nearest neighbor table
   1  0.167  0.333  0.242-   6 2.54   7 2.54   6 2.54   7 2.54   6 2.54   7 2.54
   2  0.833  0.667  0.371-   8 2.54   8 2.54   8 2.54   9 2.54   9 2.54   9 2.54
   3  0.167  0.333  0.500-  10 2.54  11 2.54  10 2.54  11 2.54  10 2.54  11 2.54
   4  0.833  0.667  0.629-  13 2.54  13 2.54  13 2.54  12 2.54  12 2.54  12 2.54
   5  0.167  0.333  0.758-  14 2.54  15 2.54  14 2.54  15 2.54  14 2.54  15 2.54
   6  0.833  0.667  0.275-   1 2.54   1 2.54   1 2.54
   7  0.833  0.667  0.208-   1 2.54   1 2.54   1 2.54
   8  0.167  0.333  0.404-   2 2.54   2 2.54   2 2.54
   9  0.167  0.333  0.337-   2 2.54   2 2.54   2 2.54
  10  0.833  0.667  0.533-   3 2.54   3 2.54   3 2.54
  11  0.833  0.667  0.467-   3 2.54   3 2.54   3 2.54
  12  0.167  0.333  0.663-   4 2.54   4 2.54   4 2.54
  13  0.167  0.333  0.596-   4 2.54   4 2.54   4 2.54
  14  0.833  0.667  0.792-   5 2.54   5 2.54   5 2.54
  15  0.833  0.667  0.725-   5 2.54   5 2.54   5 2.54

  LATTYP: Found a hexagonal cell.
 ALAT       =     3.3197487879
 C/A-ratio  =    15.0613806029

  Lattice vectors:

 A1 = (   3.3197487879,   0.0000000000,   0.0000000000)
 A2 = (  -1.6598743939,   2.8749867845,   0.0000000000)
 A3 = (   0.0000000000,   0.0000000000,  50.0000000000)

Analysis of symmetry for initial positions (statically):
 Subroutine PRICEL returns:
 Original cell was already a primitive cell.

 Routine SETGRP: Setting up the symmetry group for a
 hexagonal supercell.

 Subroutine GETGRP returns: Found 12 space group operations
 (whereof  4 operations were pure point group operations)
 out of a pool of 24 trial point group operations.

The static configuration has the point symmetry C_2v.
 The point group associated with its full space group is D_3h.

Analysis of symmetry for dynamics (positions and initial velocities):
 Subroutine PRICEL returns:
 Original cell was already a primitive cell.

[...]

The dynamic configuration has the point symmetry C_2v.
 The point group associated with its full space group is D_3h.

 Subroutine INISYM returns: Found 12 space group operations
 (whereof  4 operations are pure point group operations),
 and found     1 'primitive' translations

 KPOINTS: KPOINTS created by Atomic Simulation Env

Automatic generation of k-mesh.
Space group operators:
 irot       det(A)        alpha          n_x          n_y          n_z        tau_x        tau_y        tau_z
    1     1.000000     0.000000     1.000000     0.000000     0.000000     0.000000     0.000000     0.000000
    2    -1.000000   180.000000     0.000000     0.000000     1.000000     0.000000     0.000000     0.000000
    3    -1.000000   180.000000     1.000000     0.000000     0.000000     0.000000     0.000000     0.000000
    4     1.000000   180.000000     0.000000     1.000000     0.000000     0.000000     0.000000     0.000000
    5    -1.000000    60.000000     0.000000     0.000000    -1.000000     0.000000     0.500000     0.000000
    6     1.000000   120.000000     0.000000     0.000000    -1.000000     0.500000     0.500000     0.000000
    7     1.000000   120.000000     0.000000     0.000000     1.000000     0.000000     0.500000     0.000000
    8    -1.000000    60.000000     0.000000     0.000000     1.000000     0.500000     0.500000     0.000000
    9     1.000000   180.000000     0.866025    -0.500000     0.000000     0.500000     0.500000     0.000000
   10    -1.000000   180.000000     0.500000    -0.866025     0.000000     0.000000     0.500000     0.000000
   11    -1.000000   180.000000    -0.500000    -0.866025     0.000000     0.500000     0.500000     0.000000
   12     1.000000   180.000000     0.866025     0.500000     0.000000     0.000000     0.500000     0.000000

 Subroutine IBZKPT returns following result:

 Found     37 irreducible k-points:

 Following reciprocal coordinates:
            Coordinates               Weight
  0.000000  0.000000  0.000000      1.000000
  0.055556  0.000000  0.000000      6.000000
  0.111111  0.000000  0.000000      6.000000
  0.166667  0.000000  0.000000      6.000000
  0.222222  0.000000  0.000000      6.000000
  0.277778  0.000000  0.000000      6.000000
  0.333333  0.000000  0.000000      6.000000
  0.388889  0.000000  0.000000      6.000000
  0.444444  0.000000  0.000000      6.000000
  0.500000  0.000000  0.000000      3.000000
  0.055556  0.055556  0.000000      6.000000
  0.111111  0.055556  0.000000     12.000000
  0.166667  0.055556  0.000000     12.000000
  0.222222  0.055556  0.000000     12.000000
  0.277778  0.055556  0.000000     12.000000
  0.333333  0.055556  0.000000     12.000000
  0.388889  0.055556  0.000000     12.000000
  0.444444  0.055556  0.000000     12.000000
  0.111111  0.111111  0.000000      6.000000
  0.166667  0.111111  0.000000     12.000000
  0.222222  0.111111  0.000000     12.000000
  0.277778  0.111111  0.000000     12.000000
  0.333333  0.111111  0.000000     12.000000
  0.388889  0.111111  0.000000     12.000000
  0.444444  0.111111  0.000000      6.000000
  0.166667  0.166667  0.000000      6.000000
  0.222222  0.166667  0.000000     12.000000
  0.277778  0.166667  0.000000     12.000000
  0.333333  0.166667  0.000000     12.000000
  0.388889  0.166667  0.000000     12.000000
  0.222222  0.222222  0.000000      6.000000
  0.277778  0.222222  0.000000     12.000000
  0.333333  0.222222  0.000000     12.000000
  0.388889  0.222222  0.000000      6.000000
  0.277778  0.277778  0.000000      6.000000
  0.333333  0.277778  0.000000     12.000000
  0.333333  0.333333  0.000000      2.000000

 Following cartesian coordinates:
            Coordinates               Weight
  0.000000  0.000000  0.000000      1.000000
  0.016735  0.009662  0.000000      6.000000
  0.033470  0.019324  0.000000      6.000000
  0.050205  0.028986  0.000000      6.000000
  0.066939  0.038648  0.000000      6.000000
  0.083674  0.048309  0.000000      6.000000
  0.100409  0.057971  0.000000      6.000000
  0.117144  0.067633  0.000000      6.000000
  0.133879  0.077295  0.000000      6.000000
  0.150614  0.086957  0.000000      3.000000
  0.016735  0.028986  0.000000      6.000000
  0.033470  0.038648  0.000000     12.000000
  0.050205  0.048309  0.000000     12.000000
  0.066939  0.057971  0.000000     12.000000
  0.083674  0.067633  0.000000     12.000000
  0.100409  0.077295  0.000000     12.000000
  0.117144  0.086957  0.000000     12.000000
  0.133879  0.096619  0.000000     12.000000
  0.033470  0.057971  0.000000      6.000000
  0.050205  0.067633  0.000000     12.000000
  0.066939  0.077295  0.000000     12.000000
  0.083674  0.086957  0.000000     12.000000
  0.100409  0.096619  0.000000     12.000000
  0.117144  0.106281  0.000000     12.000000
  0.133879  0.115943  0.000000      6.000000
  0.050205  0.086957  0.000000      6.000000
  0.066939  0.096619  0.000000     12.000000
  0.083674  0.106281  0.000000     12.000000
  0.100409  0.115943  0.000000     12.000000
  0.117144  0.125604  0.000000     12.000000
  0.066939  0.115943  0.000000      6.000000
  0.083674  0.125604  0.000000     12.000000
  0.100409  0.135266  0.000000     12.000000
  0.117144  0.144928  0.000000      6.000000
  0.083674  0.144928  0.000000      6.000000
  0.100409  0.154590  0.000000     12.000000
  0.100409  0.173914  0.000000      2.000000

 TETIRR: Found    169 inequivalent tetrahedra from     1944

 Subroutine IBZKPT_HF returns following result:

 Found    324 k-points in 1st BZ
 the following    324 k-points will be used (e.g. in the exchange kernel)
 Following reciprocal coordinates:   # in IRBZ
  0.000000  0.000000  0.000000    0.00308642   1 t-inv F
  0.055556  0.000000  0.000000    0.00308642   2 t-inv F
  0.111111  0.000000  0.000000    0.00308642   3 t-inv F
  0.166667  0.000000  0.000000    0.00308642   4 t-inv F
  0.222222  0.000000  0.000000    0.00308642   5 t-inv F
  0.277778  0.000000  0.000000    0.00308642   6 t-inv F
  0.333333  0.000000  0.000000    0.00308642   7 t-inv F
  0.388889  0.000000  0.000000    0.00308642   8 t-inv F
  0.444444  0.000000  0.000000    0.00308642   9 t-inv F
  0.500000  0.000000  0.000000    0.00308642  10 t-inv F
  0.055556  0.055556  0.000000    0.00308642  11 t-inv F
  0.111111  0.055556  0.000000    0.00308642  12 t-inv F
  0.166667  0.055556  0.000000    0.00308642  13 t-inv F
  0.222222  0.055556  0.000000    0.00308642  14 t-inv F
  0.277778  0.055556  0.000000    0.00308642  15 t-inv F
  0.333333  0.055556  0.000000    0.00308642  16 t-inv F
  0.388889  0.055556  0.000000    0.00308642  17 t-inv F
  0.444444  0.055556  0.000000    0.00308642  18 t-inv F
  0.111111  0.111111  0.000000    0.00308642  19 t-inv F
  0.166667  0.111111  0.000000    0.00308642  20 t-inv F
  0.222222  0.111111  0.000000    0.00308642  21 t-inv F
  0.277778  0.111111  0.000000    0.00308642  22 t-inv F
  0.333333  0.111111  0.000000    0.00308642  23 t-inv F
  0.388889  0.111111  0.000000    0.00308642  24 t-inv F
  0.444444  0.111111  0.000000    0.00308642  25 t-inv F
  0.166667  0.166667  0.000000    0.00308642  26 t-inv F
  0.222222  0.166667  0.000000    0.00308642  27 t-inv F
  0.277778  0.166667  0.000000    0.00308642  28 t-inv F
  0.333333  0.166667  0.000000    0.00308642  29 t-inv F
  0.388889  0.166667  0.000000    0.00308642  30 t-inv F
  0.222222  0.222222  0.000000    0.00308642  31 t-inv F
  0.277778  0.222222  0.000000    0.00308642  32 t-inv F
  0.333333  0.222222  0.000000    0.00308642  33 t-inv F
  0.388889  0.222222  0.000000    0.00308642  34 t-inv F
  0.277778  0.277778  0.000000    0.00308642  35 t-inv F
  0.333333  0.277778  0.000000    0.00308642  36 t-inv F
  0.333333  0.333333  0.000000    0.00308642  37 t-inv F
 -0.055556  0.055556  0.000000    0.00308642   2 t-inv F
  0.000000 -0.055556 -0.000000    0.00308642   2 t-inv F
 -0.111111  0.111111  0.000000    0.00308642   3 t-inv F
  0.000000 -0.111111 -0.000000    0.00308642   3 t-inv F
 -0.166667  0.166667  0.000000    0.00308642   4 t-inv F
  0.000000 -0.166667 -0.000000    0.00308642   4 t-inv F
 -0.222222  0.222222  0.000000    0.00308642   5 t-inv F
  0.000000 -0.222222 -0.000000    0.00308642   5 t-inv F
 -0.277778  0.277778  0.000000    0.00308642   6 t-inv F
  0.000000 -0.277778 -0.000000    0.00308642   6 t-inv F
[...]
   -.214E-07 0.129E-07 0.143E-09   -.297E-13 -.215E-12 0.455E-12   0.105E-15 -.971E-16 0.000E+00   0.786E-08 -.454E-08 -.178E-10

 POSITION                                       TOTAL-FORCE (eV/Angst)
     -0.00000      0.95833     12.08000        -0.000000     -0.000000      0.056044
      1.65987      1.91666     18.54000        -0.000000     -0.000000      0.002124
     -0.00000      0.95833     25.00000        -0.000000      0.000000      0.000000
      1.65987      1.91666     31.46000         0.000000     -0.000000     -0.002124
     -0.00000      0.95833     37.92000        -0.000000     -0.000000     -0.056044
      1.65987      1.91666     13.74903         0.000000      0.000000     -0.079121
      1.65987      1.91666     10.41097        -0.000000     -0.000000      0.044074
     -0.00000      0.95833     20.20903        -0.000000     -0.000000     -0.094271
     -0.00000      0.95833     16.87097        -0.000000      0.000000      0.096302
      1.65987      1.91666     26.66903        -0.000000     -0.000000     -0.095103
      1.65987      1.91666     23.33097         0.000000     -0.000000      0.095103
     -0.00000      0.95833     33.12903         0.000000      0.000000     -0.096302
     -0.00000      0.95833     29.79097        -0.000000     -0.000000      0.094271
      1.65987      1.91666     39.58903        -0.000000     -0.000000     -0.044074
      1.65987      1.91666     36.25097         0.000000      0.000000      0.079121
    total drift:                               -0.000000      0.000000      0.000000

  FREE ENERGIE OF THE ION-ELECTRON SYSTEM (eV)
  free  energy   TOTEN  =      -108.27968622 eV

  energy  without entropy=     -108.27968622  energy(sigma->0) =     -108.27968622

 Linear response reoptimize wavefunctions
 Linear response G [H, r] |phi>, progress :
  Direction:   1

[...]

  free energy    TOTEN  =      -520.51364670 eV

[...]

 Linear response G [H, r] |phi>, progress :
  Direction:   2

[...]

 Linear response G [H, r] |phi>, progress :
  Direction:   3

[...]

  free energy    TOTEN  =      -579.28168905 eV

[...]

 Linear response to external field (no local field effect), progress :
  Direction:   1
  LATTYP: Found a hexagonal cell.
 ALAT       =     3.3197487879
 C/A-ratio  =    15.0613806029

[...]

The dynamic configuration has the point symmetry C_1h.

[...]

 Free energy of the ion-electron system (eV)
  -Hartree energ DENC   =         0.00000000
  -V(xc)+E(xc)   XCENC  =         0.00000000
  PAW double counting   =         0.00000000        0.00000000
  entropy T*S    EENTRO =         0.00000000
  eigenvalues    EBANDS =       -10.85433280
  free energy    TOTEN  =       -10.85433280 eV

  energy without entropy =      -10.85433280

[...]

 change of polarisation eV/A/(eV/A) component  1 :    28.463    -2.657     0.000
 dielectric tensor                  component  1 :    11.793    -1.007     0.000

[...]

The dynamic configuration has the point symmetry C_2v.

[...]

 Linear response to external field (no local field effect), progress :
  Direction:   3
  LATTYP: Found a hexagonal cell.
 ALAT       =     3.3197487879
 C/A-ratio  =    15.0613806029

[...]

The dynamic configuration has the point symmetry C_1h.
 The point group associated with its full space group is C_3v.

[...]

 HEAD OF MICROSCOPIC STATIC DIELECTRIC TENSOR (INDEPENDENT PARTICLE, excluding Hartree and local field effects)
          11.835846    -0.000000     0.000000
          -0.000000    11.835846    -0.000000
           0.000000    -0.000000     7.518695

 Linear response to external field, progress :
  Direction:   1
  LATTYP: Found a hexagonal cell.
 ALAT       =     3.3197487879
 C/A-ratio  =    15.0613806029

[...]

The dynamic configuration has the point symmetry C_1h.

[...]

  Parameters of vdW forcefield:
            C6ts              R0ts           ALPHAts        RELVOL
            (au)              (au)            (au)
   Mo       1086.648          4.138         90.875          1.028
   Mo       1094.561          4.143         91.205          1.031
   Mo       1094.568          4.143         91.205          1.032
   Mo       1094.561          4.143         91.205          1.031
   Mo       1086.648          4.138         90.875          1.028
   Se        215.629          4.062         25.333          1.013
   Se        211.148          4.048         25.068          1.003
   Se        215.639          4.062         25.333          1.013
   Se        215.626          4.062         25.333          1.013
   Se        215.638          4.062         25.333          1.013
   Se        215.638          4.062         25.333          1.013
   Se        215.626          4.062         25.333          1.013
   Se        215.639          4.062         25.333          1.013
   Se        211.148          4.048         25.068          1.003
   Se        215.629          4.062         25.333          1.013
  Edisp (eV):   -4.59184

[...]

 PIEZOELECTRIC TENSOR FIELD DIRECTION 1  (e Angst)
    -0.01206 -1.61427  0.00000           ( -0.00006  0.00369  0.00000)
    -1.61427  0.00977  0.00000           (  0.00369  0.00024  0.00000)
     0.00000  0.00000  0.00032           (  0.00000  0.00000  0.00012)

 PIEZOELECTRIC TENSOR FIELD DIRECTION 1  (C/m^2)
    -0.00040 -0.05420  0.00000
    -0.05420  0.00033  0.00000
     0.00000  0.00000  0.00001

      POSITION         DIRECTION 1           BORN EFFECTIVE CHARGE    (rigid.aug.   ionic)
     -0.00000      0.95833     12.08000    -1.75363 -0.00065  0.00001 (  0.16872 14.00000)
      1.65987      1.91666     18.54000    -1.75305  0.00068 -0.00000 (  0.16858 14.00000)
     -0.00000      0.95833     25.00000    -1.76300 -0.00068  0.00000 (  0.16858 14.00000)
      1.65987      1.91666     31.46000    -1.75305  0.00068  0.00000 (  0.16858 14.00000)
     -0.00000      0.95833     37.92000    -1.75363 -0.00065 -0.00001 (  0.16872 14.00000)
      1.65987      1.91666     13.74903     0.86448 -0.00031 -0.00026 (  1.12429  6.00000)
      1.65987      1.91666     10.41097     0.88025 -0.00034  0.00016 (  1.12264  6.00000)
     -0.00000      0.95833     20.20903     0.86664  0.00032 -0.00026 (  1.12432  6.00000)
     -0.00000      0.95833     16.87097     0.86727  0.00032  0.00026 (  1.12431  6.00000)
      1.65987      1.91666     26.66903     0.86656 -0.00032 -0.00026 (  1.12432  6.00000)
      1.65987      1.91666     23.33097     0.86656 -0.00032  0.00026 (  1.12432  6.00000)
     -0.00000      0.95833     33.12903     0.86727  0.00032 -0.00026 (  1.12431  6.00000)
     -0.00000      0.95833     29.79097     0.86664  0.00032  0.00026 (  1.12432  6.00000)
      1.65987      1.91666     39.58903     0.88025 -0.00034 -0.00016 (  1.12264  6.00000)
      1.65987      1.91666     36.25097     0.86448 -0.00031  0.00026 (  1.12429  6.00000)
    total drift (improves with k-points):  -0.08596 -0.00127  0.00000

[...]

The dynamic configuration has the point symmetry C_2v.

[...]

 Linear response to external field, progress :
  Direction:   3
  LATTYP: Found a hexagonal cell.
 ALAT       =     3.3197487879
 C/A-ratio  =    15.0613806029

[...]

The dynamic configuration has the point symmetry C_1h.
 The point group associated with its full space group is C_3v.

[...]

----------------------------------------- Iteration    3(  26)  ---------------------------------------

 Broyden mixing:
  rms(total) = 0.85432E-06    rms(broyden)= 0.85360E-06
  rms(prec ) = 0.90904E-06
  weight for this iteration     100.00

 eigenvalues of (default mixing * dielectric matrix)
  average eigenvalue GAMMA=   2.0843
  9.7700  7.2486  4.6216  3.5650  3.0567  3.0567  2.3470  2.1361  1.8690  1.2857
  1.2857  0.9495  0.9495  0.9773  0.9773  0.8791  0.8149  0.7140  0.7003  0.5624
  0.5624  0.5807  0.5902  0.5237

 Free energy of the ion-electron system (eV)
  -Hartree energ DENC   =        -1.26468397
  -V(xc)+E(xc)   XCENC  =         0.02292635
  PAW double counting   =         0.06755895       -0.06691710
  entropy T*S    EENTRO =         0.00000000
  eigenvalues    EBANDS =        -0.49995210
  free energy    TOTEN  =        -1.74106787 eV

  energy without entropy =       -1.74106787

------------------------ aborting loop because EDIFF is reached ----------------------------------------

 change of polarisation eV/A/(eV/A) component  3 :     0.000     0.000     3.411
 dielectric tensor                  component  3 :     0.000     0.000     2.293

[...]

  Hirshfeld charges:
            ion         q(e)
      1     Mo          0.310
      2     Mo          0.308
      3     Mo          0.308
      4     Mo          0.308
      5     Mo          0.310
      6     Se         -0.154
      7     Se         -0.155
      8     Se         -0.154
      9     Se         -0.154
     10     Se         -0.154
     11     Se         -0.154
     12     Se         -0.154
     13     Se         -0.154
     14     Se         -0.155
     15     Se         -0.154

  Tkatchenko/Scheffler method for vdW energy calculation

  Parameters of vdW forcefield:
            C6ts              R0ts           ALPHAts        RELVOL
            (au)              (au)            (au)
   Mo       1086.648          4.138         90.875          1.028
   Mo       1094.561          4.143         91.205          1.031
   Mo       1094.568          4.143         91.205          1.032
   Mo       1094.561          4.143         91.205          1.031
   Mo       1086.648          4.138         90.875          1.028
   Se        215.629          4.062         25.333          1.013
   Se        211.149          4.048         25.068          1.003
   Se        215.639          4.062         25.333          1.013
   Se        215.626          4.062         25.333          1.013
   Se        215.638          4.062         25.333          1.013
   Se        215.638          4.062         25.333          1.013
   Se        215.626          4.062         25.333          1.013
   Se        215.639          4.062         25.333          1.013
   Se        211.148          4.048         25.068          1.003
   Se        215.629          4.062         25.333          1.013
  Edisp (eV):   -4.59184

 PIEZOELECTRIC TENSOR FIELD DIRECTION 3  (e Angst)
     0.00087 -0.00000 -0.00000           (  0.00000  0.00000 -0.00000)
     0.00000  0.00087  0.00000           (  0.00000  0.00000  0.00000)
    -0.00000  0.00000  0.00087           ( -0.00000  0.00000  0.00000)

 PIEZOELECTRIC TENSOR FIELD DIRECTION 3  (C/m^2)
     0.00003 -0.00000 -0.00000
     0.00000  0.00003  0.00000
    -0.00000  0.00000  0.00003

      POSITION         DIRECTION 3           BORN EFFECTIVE CHARGE    (rigid.aug.   ionic)
     -0.00000      0.95833     12.08000    -0.00000  0.00000-62.77098 (  0.16872 14.00000)
      1.65987      1.91666     18.54000     0.00000 -0.00000-15.68729 (  0.16858 14.00000)
     -0.00000      0.95833     25.00000    -0.00000  0.00000  0.21149 (  0.16858 14.00000)
      1.65987      1.91666     31.46000     0.00000  0.00000-15.68701 (  0.16858 14.00000)
     -0.00000      0.95833     37.92000     0.00000 -0.00000-62.77155 (  0.16872 14.00000)
      1.65987      1.91666     13.74903     0.00000  0.00000 -1.52009 (  1.12429  6.00000)
      1.65987      1.91666     10.41097    -0.00000  0.00000  0.07792 (  1.12264  6.00000)
     -0.00000      0.95833     20.20903     0.00000 -0.00000 -0.17478 (  1.12432  6.00000)
     -0.00000      0.95833     16.87097    -0.00000 -0.00000 -0.70523 (  1.12431  6.00000)
      1.65987      1.91666     26.66903     0.00000 -0.00000  0.78875 (  1.12432  6.00000)
      1.65987      1.91666     23.33097     0.00000  0.00000  0.78876 (  1.12432  6.00000)
     -0.00000      0.95833     33.12903     0.00000  0.00000 -0.70522 (  1.12431  6.00000)
     -0.00000      0.95833     29.79097     0.00000 -0.00000 -0.17478 (  1.12432  6.00000)
      1.65987      1.91666     39.58903     0.00000  0.00000  0.07793 (  1.12264  6.00000)
      1.65987      1.91666     36.25097    -0.00000 -0.00000 -1.52009 (  1.12429  6.00000)
    total drift (improves with k-points):   0.00000 -0.00000*********

[...]

 MACROSCOPIC STATIC DIELECTRIC TENSOR (including local field effects in DFT)
          11.279721     0.000000     0.000000
           0.000000    11.279721    -0.000000
           0.000000     0.000000     2.293265

  LATTYP: Found a hexagonal cell.
 ALAT       =     3.3197487879
 C/A-ratio  =    15.0613806029

  Lattice vectors:

 A1 = (   3.3197487879,   0.0000000000,   0.0000000000)
 A2 = (  -1.6598743939,   2.8749867845,   0.0000000000)
 A3 = (   0.0000000000,   0.0000000000,  50.0000000000)

Analysis of symmetry for initial positions (statically):
 Subroutine PRICEL returns:
 Original cell was already a primitive cell.

[...]

The static configuration has the point symmetry C_2v.
 The point group associated with its full space group is D_3h.

Analysis of symmetry for dynamics (positions and initial velocities):
 Subroutine PRICEL returns:
 Original cell was already a primitive cell.

 Routine SETGRP: Setting up the symmetry group for a
 hexagonal supercell.

 Subroutine GETGRP returns: Found 12 space group operations
 (whereof  4 operations were pure point group operations)
 out of a pool of 24 trial point group operations.

The dynamic configuration has the point symmetry C_2v.
 The point group associated with its full space group is D_3h.

 Subroutine INISYM returns: Found 12 space group operations
 (whereof  4 operations are pure point group operations),
 and found     1 'primitive' translations

 MACROSCOPIC STATIC DIELECTRIC TENSOR (including local field effects in DFT)
          11.279721     0.000000     0.000000
           0.000000    11.279721    -0.000000
           0.000000     0.000000     2.293265

 PIEZOELECTRIC TENSOR  for field in x, y, z        (e  Angst)
          XX          YY          ZZ          XY          YZ          ZX
  x    -0.01206     0.00977     0.00032    -1.61427     0.00000     0.00000
  y    -1.62695     1.63311    -0.00003     0.00000     0.00000     0.00000
  z     0.00087     0.00087     0.00087     0.00000     0.00000    -0.00000

 PIEZOELECTRIC TENSOR  for field in x, y, z        (C/m^2)
          XX          YY          ZZ          XY          YZ          ZX
  x     0.00000     0.00000    -0.00000    -0.05446     0.00000     0.00000
  y    -0.05446     0.05446     0.00000     0.00000     0.00000     0.00000
  z     0.00000     0.00000     0.00000     0.00000     0.00000     0.00000

 BORN EFFECTIVE CHARGES (in e, cummulative output)
 ion    1
    1    -1.75363    -0.00065     0.00001
    2     0.00000    -1.75401    -0.00003
    3    -0.00000     0.00000   -62.77098
 ion    2
    1    -1.75305     0.00068    -0.00000
    2    -0.00000    -1.75273    -0.00000
    3     0.00000    -0.00000   -15.68729
 ion    3
    1    -1.76300    -0.00068     0.00000
    2    -0.00000    -1.76345     0.00000
    3    -0.00000     0.00000     0.21149
 ion    4
    1    -1.75305     0.00068     0.00000
    2    -0.00000    -1.75273     0.00000
    3     0.00000     0.00000   -15.68701
 ion    5
    1    -1.75363    -0.00065    -0.00001
    2     0.00000    -1.75401     0.00003
    3     0.00000    -0.00000   -62.77155
 ion    6
    1     0.86448    -0.00031    -0.00026
    2    -0.00000     0.86479     0.00068
    3     0.00000     0.00000    -1.52009
 ion    7
    1     0.88025    -0.00034     0.00016
    2     0.00000     0.88048    -0.00042
    3    -0.00000     0.00000     0.07792
 ion    8
    1     0.86664     0.00032    -0.00026
    2    -0.00000     0.86631     0.00066
    3     0.00000    -0.00000    -0.17478
 ion    9
    1     0.86727     0.00032     0.00026
    2     0.00000     0.86695    -0.00065
    3    -0.00000    -0.00000    -0.70523
 ion   10
    1     0.86656    -0.00032    -0.00026
    2     0.00000     0.86689     0.00066
    3     0.00000    -0.00000     0.78875
 ion   11
    1     0.86656    -0.00032     0.00026
    2     0.00000     0.86689    -0.00066
    3     0.00000     0.00000     0.78876
 ion   12
    1     0.86727     0.00032    -0.00026
    2     0.00000     0.86695     0.00065
    3     0.00000     0.00000    -0.70522
 ion   13
    1     0.86664     0.00032     0.00026
    2    -0.00000     0.86631    -0.00066
    3     0.00000    -0.00000    -0.17478
 ion   14
    1     0.88025    -0.00034    -0.00016
    2     0.00000     0.88048     0.00042
    3     0.00000     0.00000     0.07793
 ion   15
    1     0.86448    -0.00031     0.00026
    2    -0.00000     0.86479    -0.00068
    3    -0.00000    -0.00000    -1.52009

 writing wavefunctions
 BZINTS: Fermi energy:  2.352086;130.000000 electrons
         Band energy:***********;  BLOECHL correction:  0.000000