 vasp.5.4.1 24Jun15 (build Apr 13 2016 13:07:19) complex

 executed on           IFC91_ompi date 2019.09.13  22:40:05

 INCAR:
 POTCAR:    PAW_PBE W_sv_GW 23Mar2010
 POTCAR:    PAW_PBE S_GW 19Mar2012

 POTCAR:    PAW_PBE W_sv_GW 23Mar2010
   VRHFIN =W: 5p6s5d

   TITEL  = PAW_PBE W_sv_GW 23Mar2010
   POMASS =  183.850; ZVAL   =   14.000    mass and valenz
   ENMAX  =  317.132; ENMIN  =  237.849 eV

 POTCAR:    PAW_PBE S_GW 19Mar2012
   VRHFIN =S : s2p4

   TITEL  = PAW_PBE S_GW 19Mar2012
   POMASS =   32.066; ZVAL   =    6.000    mass and valenz
   ENMAX  =  258.689; ENMIN  =  194.016 eV

  PAW_PBE W_sv_GW 23Mar2010             :
  PAW_PBE S_GW 19Mar2012                :

 POSCAR:  W  S
  positions in cartesian coordinates
 exchange correlation table for  LEXCH =        8
   RHO(1)=    0.500       N(1)  =     2000
   RHO(2)=  100.500       N(2)  =     4000

 ion  position               nearest neighbor table
   1  0.167  0.333  0.377-   4 2.42   4 2.42   4 2.42   5 2.42   5 2.42   5 2.42
   2  0.833  0.667  0.500-   6 2.42   7 2.42   6 2.42   7 2.42   6 2.42   7 2.42
   3  0.167  0.333  0.623-   9 2.42   9 2.42   9 2.42   8 2.42   8 2.42   8 2.42
   4  0.833  0.667  0.408-   1 2.42   1 2.42   1 2.42
   5  0.833  0.667  0.346-   1 2.42   1 2.42   1 2.42
   6  0.167  0.333  0.531-   2 2.42   2 2.42   2 2.42
   7  0.167  0.333  0.469-   2 2.42   2 2.42   2 2.42
   8  0.833  0.667  0.654-   3 2.42   3 2.42   3 2.42
   9  0.833  0.667  0.592-   3 2.42   3 2.42   3 2.42

  LATTYP: Found a hexagonal cell.
 ALAT       =     3.1859459497
 C/A-ratio  =    15.6939260082

  Lattice vectors:

 A1 = (   3.1859459497,   0.0000000000,   0.0000000000)
 A2 = (  -1.5929729748,   2.7591101275,   0.0000000000)
 A3 = (   0.0000000000,   0.0000000000,  50.0000000000)

Analysis of symmetry for initial positions (statically):
 Subroutine PRICEL returns:
 Original cell was already a primitive cell.

 Routine SETGRP: Setting up the symmetry group for a
 hexagonal supercell.

 Subroutine GETGRP returns: Found 12 space group operations
 (whereof  4 operations were pure point group operations)
 out of a pool of 24 trial point group operations.

The static configuration has the point symmetry C_2v.
 The point group associated with its full space group is D_3h.

Analysis of symmetry for dynamics (positions and initial velocities):
 Subroutine PRICEL returns:
 Original cell was already a primitive cell.

[...]

The dynamic configuration has the point symmetry C_2v.
 The point group associated with its full space group is D_3h.

 Subroutine INISYM returns: Found 12 space group operations
 (whereof  4 operations are pure point group operations),
 and found     1 'primitive' translations

 KPOINTS: KPOINTS created by Atomic Simulation Env

Automatic generation of k-mesh.
Space group operators:
 irot       det(A)        alpha          n_x          n_y          n_z        tau_x        tau_y        tau_z
    1     1.000000     0.000000     1.000000     0.000000     0.000000     0.000000     0.000000     0.000000
    2    -1.000000   180.000000     0.000000     0.000000     1.000000     0.000000     0.000000     0.000000
    3    -1.000000   180.000000     1.000000     0.000000     0.000000     0.000000     0.000000     0.000000
    4     1.000000   180.000000     0.000000     1.000000     0.000000     0.000000     0.000000     0.000000
    5    -1.000000    60.000000     0.000000     0.000000    -1.000000     0.000000     0.500000     0.000000
    6     1.000000   120.000000     0.000000     0.000000    -1.000000     0.500000     0.500000     0.000000
    7     1.000000   120.000000     0.000000     0.000000     1.000000     0.000000     0.500000     0.000000
    8    -1.000000    60.000000     0.000000     0.000000     1.000000     0.500000     0.500000     0.000000
    9     1.000000   180.000000     0.866025    -0.500000     0.000000     0.500000     0.500000     0.000000
   10    -1.000000   180.000000     0.500000    -0.866025     0.000000     0.000000     0.500000     0.000000
   11    -1.000000   180.000000    -0.500000    -0.866025     0.000000     0.500000     0.500000     0.000000
   12     1.000000   180.000000     0.866025     0.500000     0.000000     0.000000     0.500000     0.000000

 Subroutine IBZKPT returns following result:

 Found     37 irreducible k-points:

 Following reciprocal coordinates:
            Coordinates               Weight
  0.000000  0.000000  0.000000      1.000000
  0.055556  0.000000  0.000000      6.000000
  0.111111  0.000000  0.000000      6.000000
  0.166667  0.000000  0.000000      6.000000
  0.222222  0.000000  0.000000      6.000000
  0.277778  0.000000  0.000000      6.000000
  0.333333  0.000000  0.000000      6.000000
  0.388889  0.000000  0.000000      6.000000
  0.444444  0.000000  0.000000      6.000000
  0.500000  0.000000  0.000000      3.000000
  0.055556  0.055556  0.000000      6.000000
  0.111111  0.055556  0.000000     12.000000
  0.166667  0.055556  0.000000     12.000000
  0.222222  0.055556  0.000000     12.000000
  0.277778  0.055556  0.000000     12.000000
  0.333333  0.055556  0.000000     12.000000
  0.388889  0.055556  0.000000     12.000000
  0.444444  0.055556  0.000000     12.000000
  0.111111  0.111111  0.000000      6.000000
  0.166667  0.111111  0.000000     12.000000
  0.222222  0.111111  0.000000     12.000000
  0.277778  0.111111  0.000000     12.000000
  0.333333  0.111111  0.000000     12.000000
  0.388889  0.111111  0.000000     12.000000
  0.444444  0.111111  0.000000      6.000000
  0.166667  0.166667  0.000000      6.000000
  0.222222  0.166667  0.000000     12.000000
  0.277778  0.166667  0.000000     12.000000
  0.333333  0.166667  0.000000     12.000000
  0.388889  0.166667  0.000000     12.000000
  0.222222  0.222222  0.000000      6.000000
  0.277778  0.222222  0.000000     12.000000
  0.333333  0.222222  0.000000     12.000000
  0.388889  0.222222  0.000000      6.000000
  0.277778  0.277778  0.000000      6.000000
  0.333333  0.277778  0.000000     12.000000
  0.333333  0.333333  0.000000      2.000000

 Following cartesian coordinates:
            Coordinates               Weight
  0.000000  0.000000  0.000000      1.000000
  0.017438  0.010068  0.000000      6.000000
  0.034875  0.020135  0.000000      6.000000
  0.052313  0.030203  0.000000      6.000000
  0.069751  0.040271  0.000000      6.000000
  0.087188  0.050338  0.000000      6.000000
  0.104626  0.060406  0.000000      6.000000
  0.122064  0.070474  0.000000      6.000000
  0.139502  0.080541  0.000000      6.000000
  0.156939  0.090609  0.000000      3.000000
  0.017438  0.030203  0.000000      6.000000
  0.034875  0.040271  0.000000     12.000000
  0.052313  0.050338  0.000000     12.000000
  0.069751  0.060406  0.000000     12.000000
  0.087188  0.070474  0.000000     12.000000
  0.104626  0.080541  0.000000     12.000000
  0.122064  0.090609  0.000000     12.000000
  0.139502  0.100677  0.000000     12.000000
  0.034875  0.060406  0.000000      6.000000
  0.052313  0.070474  0.000000     12.000000
  0.069751  0.080541  0.000000     12.000000
  0.087188  0.090609  0.000000     12.000000
  0.104626  0.100677  0.000000     12.000000
  0.122064  0.110744  0.000000     12.000000
  0.139502  0.120812  0.000000      6.000000
  0.052313  0.090609  0.000000      6.000000
  0.069751  0.100677  0.000000     12.000000
  0.087188  0.110744  0.000000     12.000000
  0.104626  0.120812  0.000000     12.000000
  0.122064  0.130880  0.000000     12.000000
  0.069751  0.120812  0.000000      6.000000
  0.087188  0.130880  0.000000     12.000000
  0.104626  0.140947  0.000000     12.000000
  0.122064  0.151015  0.000000      6.000000
  0.087188  0.151015  0.000000      6.000000
  0.104626  0.161083  0.000000     12.000000
  0.104626  0.181218  0.000000      2.000000

 TETIRR: Found    169 inequivalent tetrahedra from     1944

 Subroutine IBZKPT_HF returns following result:

 Found    324 k-points in 1st BZ
 the following    324 k-points will be used (e.g. in the exchange kernel)
 Following reciprocal coordinates:   # in IRBZ
  0.000000  0.000000  0.000000    0.00308642   1 t-inv F
  0.055556  0.000000  0.000000    0.00308642   2 t-inv F
  0.111111  0.000000  0.000000    0.00308642   3 t-inv F
  0.166667  0.000000  0.000000    0.00308642   4 t-inv F
  0.222222  0.000000  0.000000    0.00308642   5 t-inv F
  0.277778  0.000000  0.000000    0.00308642   6 t-inv F
  0.333333  0.000000  0.000000    0.00308642   7 t-inv F
  0.388889  0.000000  0.000000    0.00308642   8 t-inv F
  0.444444  0.000000  0.000000    0.00308642   9 t-inv F
  0.500000  0.000000  0.000000    0.00308642  10 t-inv F
  0.055556  0.055556  0.000000    0.00308642  11 t-inv F
  0.111111  0.055556  0.000000    0.00308642  12 t-inv F
  0.166667  0.055556  0.000000    0.00308642  13 t-inv F
  0.222222  0.055556  0.000000    0.00308642  14 t-inv F
  0.277778  0.055556  0.000000    0.00308642  15 t-inv F
  0.333333  0.055556  0.000000    0.00308642  16 t-inv F
  0.388889  0.055556  0.000000    0.00308642  17 t-inv F
  0.444444  0.055556  0.000000    0.00308642  18 t-inv F
  0.111111  0.111111  0.000000    0.00308642  19 t-inv F
  0.166667  0.111111  0.000000    0.00308642  20 t-inv F
  0.222222  0.111111  0.000000    0.00308642  21 t-inv F
  0.277778  0.111111  0.000000    0.00308642  22 t-inv F
  0.333333  0.111111  0.000000    0.00308642  23 t-inv F
  0.388889  0.111111  0.000000    0.00308642  24 t-inv F
  0.444444  0.111111  0.000000    0.00308642  25 t-inv F
  0.166667  0.166667  0.000000    0.00308642  26 t-inv F
  0.222222  0.166667  0.000000    0.00308642  27 t-inv F
  0.277778  0.166667  0.000000    0.00308642  28 t-inv F
  0.333333  0.166667  0.000000    0.00308642  29 t-inv F
  0.388889  0.166667  0.000000    0.00308642  30 t-inv F
  0.222222  0.222222  0.000000    0.00308642  31 t-inv F
  0.277778  0.222222  0.000000    0.00308642  32 t-inv F
  0.333333  0.222222  0.000000    0.00308642  33 t-inv F
  0.388889  0.222222  0.000000    0.00308642  34 t-inv F
  0.277778  0.277778  0.000000    0.00308642  35 t-inv F
  0.333333  0.277778  0.000000    0.00308642  36 t-inv F
  0.333333  0.333333  0.000000    0.00308642  37 t-inv F
 -0.055556  0.055556  0.000000    0.00308642   2 t-inv F
  0.000000 -0.055556 -0.000000    0.00308642   2 t-inv F
 -0.111111  0.111111  0.000000    0.00308642   3 t-inv F
  0.000000 -0.111111 -0.000000    0.00308642   3 t-inv F
 -0.166667  0.166667  0.000000    0.00308642   4 t-inv F
  0.000000 -0.166667 -0.000000    0.00308642   4 t-inv F
 -0.222222  0.222222  0.000000    0.00308642   5 t-inv F
  0.000000 -0.222222 -0.000000    0.00308642   5 t-inv F
 -0.277778  0.277778  0.000000    0.00308642   6 t-inv F
  0.000000 -0.277778 -0.000000    0.00308642   6 t-inv F
 -0.333333  0.333333  0.000000    0.00308642   7 t-inv F
  0.000000 -0.333333 -0.000000    0.00308642   7 t-inv F
 -0.388889  0.388889  0.000000    0.00308642   8 t-inv F
  0.000000 -0.388889 -0.000000    0.00308642   8 t-inv F
 -0.444444  0.444444  0.000000    0.00308642   9 t-inv F
  0.000000 -0.444444 -0.000000    0.00308642   9 t-inv F
 -0.500000  0.500000  0.000000    0.00308642  10 t-inv F
[...]
   S         135.468          3.862         19.707          1.005
   S         132.618          3.848         19.499          0.995
   S         135.465          3.862         19.707          1.005
   S         135.465          3.862         19.707          1.005
   S         132.618          3.848         19.499          0.995
   S         135.468          3.862         19.707          1.005

  IVDW =  20
  VDW_RADIUS =    50.000 A
  VDW_IDAMPF =  0
  VDW_S6 =     1.000
  VDW_SR =     0.940
  VDW_D =    20.000
  LVDW_EWALD = T
  Edisp (eV):   -2.35931

  FORCE on cell =-STRESS in cart. coord.  units (eV):
  Direction    XX          YY          ZZ          XY          YZ          ZX
  Alpha Z   105.25259   105.25259   105.25259
  Ewald  107490.44176107490.44176************    -0.00000     0.00000     0.00000
  Hartree108864.91309108864.91309************    -0.00000    -0.00000    -0.00000
  E(xc)    -378.93237  -378.93237  -379.38110     0.00000    -0.00000     0.00000
  Local  ************************218399.32096    -0.00002    -0.00000     0.00000
  n-local   196.77243   199.68561   203.56322     0.48838     0.00000    -0.00000
  augment  -219.15928  -219.15927  -221.03655     0.00002     0.00000     0.00000
  Kinetic  1747.04776  1756.19354  1767.25359   -46.26598     0.00000     0.00000
  Fock        0.00000     0.00000     0.00000     0.00000     0.00000     0.00000
  vdW        -2.44123    -2.44123    -2.40908     0.00000     0.00000    -0.00000
  Total      -7.09441    -7.09441    -6.17573     0.00000    -0.00000    -0.00000
  in kB     -25.86123   -25.86123   -22.51240     0.00000    -0.00000    -0.00000

 VOLUME and BASIS-vectors are now :
  energy-cutoff  :      317.13
  volume of cell :      439.52
      direct lattice vectors                 reciprocal lattice vectors
     3.185945950  0.000000000  0.000000000     0.313878520  0.181217848  0.000000000
    -1.592972975  2.759110127  0.000000000     0.000000000  0.362435696  0.000000000
     0.000000000  0.000000000 50.000000000     0.000000000  0.000000000  0.020000000

  length of vectors
     3.185945950  3.185945950 50.000000000     0.362435696  0.362435696  0.020000000

 FORCES acting on ions
    electron-ion (+dipol)            ewald-force                    non-local-force                 convergence-correction
   -.584E-06 0.493E-06 0.473E+04   0.120E-10 -.694E-11 -.473E+04   -.139E-16 0.173E-17 0.187E-01   0.153E-09 -.885E-10 0.826E-06
   0.392E-06 -.227E-06 0.969E-10   -.119E-10 0.689E-11 0.114E-12   -.694E-17 -.347E-17 0.000E+00   -.748E-10 0.433E-10 0.354E-11
   -.719E-06 0.259E-06 -.473E+04   0.120E-10 -.694E-11 0.473E+04   -.139E-16 0.000E+00 -.187E-01   0.153E-09 -.886E-10 -.826E-06
   -.169E-06 0.145E-06 0.116E+04   -.608E-11 0.349E-11 -.116E+04   0.867E-17 -.278E-16 -.812E+01   -.627E-11 0.364E-11 0.743E-06
   -.515E-07 0.101E-06 0.289E+04   -.603E-11 0.346E-11 -.290E+04   -.694E-17 0.000E+00 0.805E+01   -.620E-11 0.359E-11 0.477E-08
   0.411E-07 0.651E-07 -.863E+03   0.609E-11 -.353E-11 0.871E+03   0.867E-17 0.312E-16 -.810E+01   0.107E-11 -.629E-12 0.135E-05
   -.358E-07 -.682E-07 0.863E+03   0.609E-11 -.353E-11 -.871E+03   0.173E-16 0.139E-16 0.810E+01   0.107E-11 -.655E-12 -.135E-05
   -.113E-06 -.571E-08 -.289E+04   -.603E-11 0.346E-11 0.290E+04   -.347E-17 0.173E-16 -.805E+01   -.621E-11 0.361E-11 -.477E-08
   -.210E-06 0.738E-07 -.116E+04   -.608E-11 0.349E-11 0.116E+04   -.173E-17 -.694E-17 0.812E+01   -.628E-11 0.362E-11 -.743E-06
   -.145E-05 0.836E-06 0.161E-09   0.975E-13 -.156E-12 0.000E+00   -.121E-16 0.260E-16 0.000E+00   0.209E-09 -.121E-09 0.133E-10

 POSITION                                       TOTAL-FORCE (eV/Angst)
     -0.00000      0.91970     18.85000         0.000000      0.000000      0.066989
      1.59297      1.83941     25.00000        -0.000000      0.000000      0.000000
     -0.00000      0.91970     31.15000        -0.000000      0.000000     -0.066989
      1.59297      1.83941     20.42280         0.000000     -0.000000     -0.126361
      1.59297      1.83941     17.27720        -0.000000     -0.000000      0.055563
     -0.00000      0.91970     26.57280         0.000000      0.000000     -0.139699
     -0.00000      0.91970     23.42720         0.000000      0.000000      0.139699
      1.59297      1.83941     32.72280        -0.000000      0.000000     -0.055563
      1.59297      1.83941     29.57720         0.000000     -0.000000      0.126361
    total drift:                               -0.000001      0.000001      0.000000

  FREE ENERGIE OF THE ION-ELECTRON SYSTEM (eV)
  free  energy   TOTEN  =       -79.34245163 eV

  energy  without entropy=      -79.34245163  energy(sigma->0) =      -79.34245163

 Linear response reoptimize wavefunctions
 Linear response G [H, r] |phi>, progress :
  Direction:   1

[...]

  free energy    TOTEN  =      -342.26990106 eV

[...]

 Linear response G [H, r] |phi>, progress :
  Direction:   2

[...]

 Linear response G [H, r] |phi>, progress :
  Direction:   3

[...]

  free energy    TOTEN  =      -340.13857672 eV

[...]

 Linear response to external field (no local field effect), progress :
  Direction:   1
  LATTYP: Found a hexagonal cell.
 ALAT       =     3.1859459497
 C/A-ratio  =    15.6939260082

[...]

The dynamic configuration has the point symmetry C_1h.

[...]

 Free energy of the ion-electron system (eV)
  -Hartree energ DENC   =         0.00000000
  -V(xc)+E(xc)   XCENC  =         0.00000000
  PAW double counting   =         0.00000000        0.00000000
  entropy T*S    EENTRO =         0.00000000
  eigenvalues    EBANDS =        -5.43488612
  free energy    TOTEN  =        -5.43488612 eV

  energy without entropy =       -5.43488612

[...]

 change of polarisation eV/A/(eV/A) component  1 :    12.643    -1.588    -0.000
 dielectric tensor                  component  1 :     6.205    -0.654    -0.000

[...]

The dynamic configuration has the point symmetry C_2v.

[...]

 Linear response to external field (no local field effect), progress :
  Direction:   3
  LATTYP: Found a hexagonal cell.
 ALAT       =     3.1859459497
 C/A-ratio  =    15.6939260082

[...]

The dynamic configuration has the point symmetry C_1h.
 The point group associated with its full space group is C_3v.

[...]

 HEAD OF MICROSCOPIC STATIC DIELECTRIC TENSOR (INDEPENDENT PARTICLE, excluding Hartree and local field effects)
           6.044433     0.000000     0.000000
          -0.000000     6.044433     0.000000
          -0.000000     0.000000     3.899582

 Linear response to external field, progress :
  Direction:   1
  LATTYP: Found a hexagonal cell.
 ALAT       =     3.1859459497
 C/A-ratio  =    15.6939260082

[...]

The dynamic configuration has the point symmetry C_1h.

[...]

  Parameters of vdW forcefield:
            C6ts              R0ts           ALPHAts        RELVOL
            (au)              (au)            (au)
   W         873.713          4.102         72.113          1.015
   W         882.165          4.109         72.461          1.020
   W         873.713          4.102         72.113          1.015
   S         135.468          3.862         19.707          1.005
   S         132.618          3.848         19.499          0.995
   S         135.465          3.862         19.707          1.005
   S         135.465          3.862         19.707          1.005
   S         132.618          3.848         19.499          0.995
   S         135.468          3.862         19.707          1.005
  Edisp (eV):   -2.35931

[...]

 PIEZOELECTRIC TENSOR FIELD DIRECTION 1  (e Angst)
    -0.00697 -1.09846  0.00000           ( -0.00002  0.03694  0.00000)
    -1.09844  0.00579  0.00000           (  0.03694  0.00004  0.00000)
     0.00000  0.00000 -0.00017           (  0.00000  0.00000  0.00002)

 PIEZOELECTRIC TENSOR FIELD DIRECTION 1  (C/m^2)
    -0.00025 -0.04004  0.00000
    -0.04004  0.00021  0.00000
     0.00000  0.00000 -0.00001

      POSITION         DIRECTION 1           BORN EFFECTIVE CHARGE    (rigid.aug.   ionic)
     -0.00000      0.91970     18.85000    -0.43665 -0.00078  0.00001 (  1.96478 14.00000)
      1.59297      1.83941     25.00000    -0.44407  0.00079  0.00000 (  1.96472 14.00000)
     -0.00000      0.91970     31.15000    -0.43665 -0.00078 -0.00001 (  1.96478 14.00000)
      1.59297      1.83941     20.42280     0.24061 -0.00026 -0.00017 (  0.65943  6.00000)
      1.59297      1.83941     17.27720     0.25932 -0.00027  0.00011 (  0.65870  6.00000)
     -0.00000      0.91970     26.57280     0.25332  0.00026 -0.00018 (  0.65945  6.00000)
     -0.00000      0.91970     23.42720     0.25332  0.00026  0.00018 (  0.65945  6.00000)
      1.59297      1.83941     32.72280     0.25932 -0.00027 -0.00011 (  0.65870  6.00000)
      1.59297      1.83941     29.57720     0.24061 -0.00026  0.00017 (  0.65943  6.00000)
    total drift (improves with k-points):   0.18915 -0.00129  0.00000

[...]

The dynamic configuration has the point symmetry C_2v.

[...]

 Linear response to external field, progress :
  Direction:   3
  LATTYP: Found a hexagonal cell.
 ALAT       =     3.1859459497
 C/A-ratio  =    15.6939260082

[...]

The dynamic configuration has the point symmetry C_1h.
 The point group associated with its full space group is C_3v.

[...]

----------------------------------------- Iteration    3(  24)  ---------------------------------------

 Broyden mixing:
  rms(total) = 0.65244E-06    rms(broyden)= 0.65242E-06
  rms(prec ) = 0.70949E-06
  weight for this iteration     100.00

 eigenvalues of (default mixing * dielectric matrix)
  average eigenvalue GAMMA=   2.4305
  8.1617  8.1617  5.6441  4.6799  3.1906  3.1906  2.3542  2.3542  1.7695  1.7695
  1.4771  1.3706  0.6764  1.1531  1.1531  0.9105  0.9105  1.0429  0.9890  0.8758
  0.8278  0.8083

 Free energy of the ion-electron system (eV)
  -Hartree energ DENC   =        -0.42980431
  -V(xc)+E(xc)   XCENC  =         0.00591230
  PAW double counting   =         0.01468543       -0.01473721
  entropy T*S    EENTRO =         0.00000000
  eigenvalues    EBANDS =        -0.12623449
  free energy    TOTEN  =        -0.55017828 eV

  energy without entropy =       -0.55017828

------------------------ aborting loop because EDIFF is reached ----------------------------------------

 change of polarisation eV/A/(eV/A) component  3 :    -0.000    -0.000     1.080
 dielectric tensor                  component  3 :    -0.000    -0.000     1.445

[...]

  Hirshfeld charges:
            ion         q(e)
      1     W           0.351
      2     W           0.350
      3     W           0.351
      4     S          -0.175
      5     S          -0.176
      6     S          -0.175
      7     S          -0.175
      8     S          -0.176
      9     S          -0.175

  Tkatchenko/Scheffler method for vdW energy calculation

  Parameters of vdW forcefield:
            C6ts              R0ts           ALPHAts        RELVOL
            (au)              (au)            (au)
   W         873.714          4.102         72.113          1.015
   W         882.165          4.109         72.461          1.020
   W         873.713          4.102         72.113          1.015
   S         135.468          3.862         19.707          1.005
   S         132.618          3.848         19.499          0.995
   S         135.465          3.862         19.707          1.005
   S         135.465          3.862         19.707          1.005
   S         132.618          3.848         19.499          0.995
   S         135.468          3.862         19.707          1.005
  Edisp (eV):   -2.35931

 PIEZOELECTRIC TENSOR FIELD DIRECTION 3  (e Angst)
     0.00002 -0.00000 -0.00000           (  0.00000  0.00000 -0.00000)
    -0.00000  0.00002 -0.00000           (  0.00000  0.00000 -0.00000)
    -0.00000  0.00000 -0.00004           ( -0.00000 -0.00000 -0.00000)

 PIEZOELECTRIC TENSOR FIELD DIRECTION 3  (C/m^2)
     0.00000 -0.00000 -0.00000
    -0.00000  0.00000 -0.00000
    -0.00000  0.00000 -0.00000

      POSITION         DIRECTION 3           BORN EFFECTIVE CHARGE    (rigid.aug.   ionic)
     -0.00000      0.91970     18.85000     0.00000  0.00000-12.82826 (  1.96478 14.00000)
      1.59297      1.83941     25.00000     0.00000 -0.00000 -0.54012 (  1.96472 14.00000)
     -0.00000      0.91970     31.15000     0.00000 -0.00000-12.82825 (  1.96478 14.00000)
      1.59297      1.83941     20.42280     0.00000 -0.00000 -0.21991 (  0.65943  6.00000)
      1.59297      1.83941     17.27720     0.00000 -0.00000  0.52354 (  0.65870  6.00000)
     -0.00000      0.91970     26.57280    -0.00000 -0.00000  0.07100 (  0.65945  6.00000)
     -0.00000      0.91970     23.42720     0.00000  0.00000  0.07100 (  0.65945  6.00000)
      1.59297      1.83941     32.72280     0.00000 -0.00000  0.52354 (  0.65870  6.00000)
      1.59297      1.83941     29.57720     0.00000 -0.00000 -0.21991 (  0.65943  6.00000)
    total drift (improves with k-points):   0.00000 -0.00000-25.44737

[...]

 MACROSCOPIC STATIC DIELECTRIC TENSOR (including local field effects in DFT)
           5.791922     0.000000    -0.000000
           0.000000     5.791922     0.000000
           0.000000     0.000000     1.444821

  LATTYP: Found a hexagonal cell.
 ALAT       =     3.1859459497
 C/A-ratio  =    15.6939260082

  Lattice vectors:

 A1 = (   3.1859459497,   0.0000000000,   0.0000000000)
 A2 = (  -1.5929729748,   2.7591101275,   0.0000000000)
 A3 = (   0.0000000000,   0.0000000000,  50.0000000000)

Analysis of symmetry for initial positions (statically):
 Subroutine PRICEL returns:
 Original cell was already a primitive cell.

[...]

The static configuration has the point symmetry C_2v.
 The point group associated with its full space group is D_3h.

Analysis of symmetry for dynamics (positions and initial velocities):
 Subroutine PRICEL returns:
 Original cell was already a primitive cell.

 Routine SETGRP: Setting up the symmetry group for a
 hexagonal supercell.

 Subroutine GETGRP returns: Found 12 space group operations
 (whereof  4 operations were pure point group operations)
 out of a pool of 24 trial point group operations.

The dynamic configuration has the point symmetry C_2v.
 The point group associated with its full space group is D_3h.

 Subroutine INISYM returns: Found 12 space group operations
 (whereof  4 operations are pure point group operations),
 and found     1 'primitive' translations

 MACROSCOPIC STATIC DIELECTRIC TENSOR (including local field effects in DFT)
           5.791922     0.000000    -0.000000
           0.000000     5.791922     0.000000
           0.000000     0.000000     1.444821

 PIEZOELECTRIC TENSOR  for field in x, y, z        (e  Angst)
          XX          YY          ZZ          XY          YZ          ZX
  x    -0.00697     0.00579    -0.00017    -1.09844     0.00000     0.00000
  y    -1.10601     1.10871     0.00090     0.00000     0.00000     0.00000
  z     0.00002     0.00002    -0.00004    -0.00000     0.00000    -0.00000

 PIEZOELECTRIC TENSOR  for field in x, y, z        (C/m^2)
          XX          YY          ZZ          XY          YZ          ZX
  x     0.00000     0.00000    -0.00000    -0.04020     0.00000     0.00000
  y    -0.04020     0.04020     0.00000     0.00000     0.00000     0.00000
  z     0.00000     0.00000     0.00000     0.00000     0.00000     0.00000

 BORN EFFECTIVE CHARGES (in e, cummulative output)
 ion    1
    1    -0.43665    -0.00078     0.00001
    2     0.00000    -0.43750     0.00001
    3     0.00000     0.00000   -12.82826
 ion    2
    1    -0.44407     0.00079     0.00000
    2     0.00000    -0.44322     0.00000
    3     0.00000    -0.00000    -0.54012
 ion    3
    1    -0.43665    -0.00078    -0.00001
    2     0.00000    -0.43750    -0.00001
    3     0.00000    -0.00000   -12.82825
 ion    4
    1     0.24061    -0.00026    -0.00017
    2    -0.00000     0.24108     0.00044
    3     0.00000    -0.00000    -0.21991
 ion    5
    1     0.25932    -0.00027     0.00011
    2    -0.00000     0.25975    -0.00031
    3     0.00000    -0.00000     0.52354
 ion    6
    1     0.25332     0.00026    -0.00018
    2     0.00000     0.25284     0.00045
    3    -0.00000    -0.00000     0.07100
 ion    7
    1     0.25332     0.00026     0.00018
    2     0.00000     0.25284    -0.00045
    3     0.00000     0.00000     0.07100
 ion    8
    1     0.25932    -0.00027    -0.00011
    2    -0.00000     0.25975     0.00031
    3     0.00000    -0.00000     0.52354
 ion    9
    1     0.24061    -0.00026     0.00017
    2    -0.00000     0.24108    -0.00044
    3     0.00000    -0.00000    -0.21991

 writing wavefunctions
 BZINTS: Fermi energy: -0.283304; 78.000000 electrons
         Band energy:***********;  BLOECHL correction:  0.000000