 vasp.5.4.1 24Jun15 (build Apr 13 2016 13:07:19) complex

 executed on           IFC91_ompi date 2019.09.14  00:37:14

 INCAR:
 POTCAR:    PAW_PBE Mo_sv_GW 05Dec2013
 POTCAR:    PAW_PBE Te_GW 22Mar2012

 POTCAR:    PAW_PBE Mo_sv_GW 05Dec2013
   VRHFIN =Mo: 4s4p5s4d

   TITEL  = PAW_PBE Mo_sv_GW 05Dec2013
   POMASS =   95.940; ZVAL   =   14.000    mass and valenz
   ENMAX  =  344.914; ENMIN  =  258.686 eV

 POTCAR:    PAW_PBE Te_GW 22Mar2012
   VRHFIN =Te: s2p4

   TITEL  = PAW_PBE Te_GW 22Mar2012
   POMASS =  127.600; ZVAL   =    6.000    mass and valenz
   ENMAX  =  174.982; ENMIN  =  131.236 eV

  PAW_PBE Mo_sv_GW 05Dec2013            :
  PAW_PBE Te_GW 22Mar2012               :

 POSCAR: Mo Te
  positions in cartesian coordinates
 exchange correlation table for  LEXCH =        8
   RHO(1)=    0.500       N(1)  =     2000
   RHO(2)=  100.500       N(2)  =     4000

 ion  position               nearest neighbor table
   1  0.167  0.333  0.500-   2 2.73   3 2.73   2 2.73   3 2.73   2 2.73   3 2.73
   2  0.833  0.667  0.536-   1 2.73   1 2.73   1 2.73   3 3.61
   3  0.833  0.667  0.464-   1 2.73   1 2.73   1 2.73   2 3.61

  LATTYP: Found a hexagonal cell.
 ALAT       =     3.5473923118
 C/A-ratio  =    14.0948605637

  Lattice vectors:

 A1 = (   3.5473923118,   0.0000000000,   0.0000000000)
 A2 = (  -1.7736961559,   3.0721318592,   0.0000000000)
 A3 = (   0.0000000000,   0.0000000000,  50.0000000000)

Analysis of symmetry for initial positions (statically):
 Subroutine PRICEL returns:
 Original cell was already a primitive cell.

 Routine SETGRP: Setting up the symmetry group for a
 hexagonal supercell.

 Subroutine GETGRP returns: Found 12 space group operations
 (whereof  4 operations were pure point group operations)
 out of a pool of 24 trial point group operations.

The static configuration has the point symmetry C_2v.
 The point group associated with its full space group is D_3h.

Analysis of symmetry for dynamics (positions and initial velocities):
 Subroutine PRICEL returns:
 Original cell was already a primitive cell.

[...]

The dynamic configuration has the point symmetry C_2v.
 The point group associated with its full space group is D_3h.

 Subroutine INISYM returns: Found 12 space group operations
 (whereof  4 operations are pure point group operations),
 and found     1 'primitive' translations

 KPOINTS: KPOINTS created by Atomic Simulation Env

Automatic generation of k-mesh.
Space group operators:
 irot       det(A)        alpha          n_x          n_y          n_z        tau_x        tau_y        tau_z
    1     1.000000     0.000001     1.000000     0.000000     0.000000     0.000000     0.000000     0.000000
    2    -1.000000   179.999999     0.000000     0.000000     1.000000     0.000000     0.000000     0.000000
    3    -1.000000   180.000000     1.000000     0.000000     0.000000     0.000000     0.000000     0.000000
    4     1.000000   179.999999     0.000000     1.000000     0.000000     0.000000     0.000000     0.000000
    5    -1.000000    60.000000     0.000000     0.000000    -1.000000     0.000000     0.500000     0.000000
    6     1.000000   120.000000     0.000000     0.000000    -1.000000     0.500000     0.500000     0.000000
    7     1.000000   120.000000     0.000000     0.000000     1.000000     0.000000     0.500000     0.000000
    8    -1.000000    60.000000     0.000000     0.000000     1.000000     0.500000     0.500000     0.000000
    9     1.000000   180.000000     0.866025    -0.500000     0.000000     0.500000     0.500000     0.000000
   10    -1.000000   180.000000     0.500000    -0.866025     0.000000     0.000000     0.500000     0.000000
   11    -1.000000   180.000000    -0.500000    -0.866025     0.000000     0.500000     0.500000     0.000000
   12     1.000000   180.000000     0.866025     0.500000     0.000000     0.000000     0.500000     0.000000

 Subroutine IBZKPT returns following result:

 Found     37 irreducible k-points:

 Following reciprocal coordinates:
            Coordinates               Weight
  0.000000  0.000000  0.000000      1.000000
  0.055556  0.000000  0.000000      6.000000
  0.111111  0.000000  0.000000      6.000000
  0.166667  0.000000  0.000000      6.000000
  0.222222  0.000000  0.000000      6.000000
  0.277778  0.000000  0.000000      6.000000
  0.333333  0.000000  0.000000      6.000000
  0.388889  0.000000  0.000000      6.000000
  0.444444  0.000000  0.000000      6.000000
  0.500000  0.000000  0.000000      3.000000
  0.055556  0.055556  0.000000      6.000000
  0.111111  0.055556  0.000000     12.000000
  0.166667  0.055556  0.000000     12.000000
  0.222222  0.055556  0.000000     12.000000
  0.277778  0.055556  0.000000     12.000000
  0.333333  0.055556  0.000000     12.000000
  0.388889  0.055556  0.000000     12.000000
  0.444444  0.055556  0.000000     12.000000
  0.111111  0.111111  0.000000      6.000000
  0.166667  0.111111  0.000000     12.000000
  0.222222  0.111111  0.000000     12.000000
  0.277778  0.111111  0.000000     12.000000
  0.333333  0.111111  0.000000     12.000000
  0.388889  0.111111  0.000000     12.000000
  0.444444  0.111111  0.000000      6.000000
  0.166667  0.166667  0.000000      6.000000
  0.222222  0.166667  0.000000     12.000000
  0.277778  0.166667  0.000000     12.000000
  0.333333  0.166667  0.000000     12.000000
  0.388889  0.166667  0.000000     12.000000
  0.222222  0.222222  0.000000      6.000000
  0.277778  0.222222  0.000000     12.000000
  0.333333  0.222222  0.000000     12.000000
  0.388889  0.222222  0.000000      6.000000
  0.277778  0.277778  0.000000      6.000000
  0.333333  0.277778  0.000000     12.000000
  0.333333  0.333333  0.000000      2.000000

 Following cartesian coordinates:
            Coordinates               Weight
  0.000000  0.000000  0.000000      1.000000
  0.015661  0.009042  0.000000      6.000000
  0.031322  0.018084  0.000000      6.000000
  0.046983  0.027126  0.000000      6.000000
  0.062644  0.036167  0.000000      6.000000
  0.078305  0.045209  0.000000      6.000000
  0.093966  0.054251  0.000000      6.000000
  0.109627  0.063293  0.000000      6.000000
  0.125288  0.072335  0.000000      6.000000
  0.140949  0.081377  0.000000      3.000000
  0.015661  0.027126  0.000000      6.000000
  0.031322  0.036167  0.000000     12.000000
  0.046983  0.045209  0.000000     12.000000
  0.062644  0.054251  0.000000     12.000000
  0.078305  0.063293  0.000000     12.000000
  0.093966  0.072335  0.000000     12.000000
  0.109627  0.081377  0.000000     12.000000
  0.125288  0.090419  0.000000     12.000000
  0.031322  0.054251  0.000000      6.000000
  0.046983  0.063293  0.000000     12.000000
  0.062644  0.072335  0.000000     12.000000
  0.078305  0.081377  0.000000     12.000000
  0.093966  0.090419  0.000000     12.000000
  0.109627  0.099460  0.000000     12.000000
  0.125288  0.108502  0.000000      6.000000
  0.046983  0.081377  0.000000      6.000000
  0.062644  0.090419  0.000000     12.000000
  0.078305  0.099460  0.000000     12.000000
  0.093966  0.108502  0.000000     12.000000
  0.109627  0.117544  0.000000     12.000000
  0.062644  0.108502  0.000000      6.000000
  0.078305  0.117544  0.000000     12.000000
  0.093966  0.126586  0.000000     12.000000
  0.109627  0.135628  0.000000      6.000000
  0.078305  0.135628  0.000000      6.000000
  0.093966  0.144670  0.000000     12.000000
  0.093966  0.162753  0.000000      2.000000

 TETIRR: Found    169 inequivalent tetrahedra from     1944

 Subroutine IBZKPT_HF returns following result:

 Found    324 k-points in 1st BZ
 the following    324 k-points will be used (e.g. in the exchange kernel)
 Following reciprocal coordinates:   # in IRBZ
  0.000000  0.000000  0.000000    0.00308642   1 t-inv F
  0.055556  0.000000  0.000000    0.00308642   2 t-inv F
  0.111111  0.000000  0.000000    0.00308642   3 t-inv F
  0.166667  0.000000  0.000000    0.00308642   4 t-inv F
  0.222222  0.000000  0.000000    0.00308642   5 t-inv F
  0.277778  0.000000  0.000000    0.00308642   6 t-inv F
  0.333333  0.000000  0.000000    0.00308642   7 t-inv F
  0.388889  0.000000  0.000000    0.00308642   8 t-inv F
  0.444444  0.000000  0.000000    0.00308642   9 t-inv F
  0.500000  0.000000  0.000000    0.00308642  10 t-inv F
  0.055556  0.055556  0.000000    0.00308642  11 t-inv F
  0.111111  0.055556  0.000000    0.00308642  12 t-inv F
  0.166667  0.055556  0.000000    0.00308642  13 t-inv F
  0.222222  0.055556  0.000000    0.00308642  14 t-inv F
  0.277778  0.055556  0.000000    0.00308642  15 t-inv F
  0.333333  0.055556  0.000000    0.00308642  16 t-inv F
  0.388889  0.055556  0.000000    0.00308642  17 t-inv F
  0.444444  0.055556  0.000000    0.00308642  18 t-inv F
  0.111111  0.111111  0.000000    0.00308642  19 t-inv F
  0.166667  0.111111  0.000000    0.00308642  20 t-inv F
  0.222222  0.111111  0.000000    0.00308642  21 t-inv F
  0.277778  0.111111  0.000000    0.00308642  22 t-inv F
  0.333333  0.111111  0.000000    0.00308642  23 t-inv F
  0.388889  0.111111  0.000000    0.00308642  24 t-inv F
  0.444444  0.111111  0.000000    0.00308642  25 t-inv F
  0.166667  0.166667  0.000000    0.00308642  26 t-inv F
  0.222222  0.166667  0.000000    0.00308642  27 t-inv F
  0.277778  0.166667  0.000000    0.00308642  28 t-inv F
  0.333333  0.166667  0.000000    0.00308642  29 t-inv F
  0.388889  0.166667  0.000000    0.00308642  30 t-inv F
  0.222222  0.222222  0.000000    0.00308642  31 t-inv F
  0.277778  0.222222  0.000000    0.00308642  32 t-inv F
  0.333333  0.222222  0.000000    0.00308642  33 t-inv F
  0.388889  0.222222  0.000000    0.00308642  34 t-inv F
  0.277778  0.277778  0.000000    0.00308642  35 t-inv F
  0.333333  0.277778  0.000000    0.00308642  36 t-inv F
  0.333333  0.333333  0.000000    0.00308642  37 t-inv F
 -0.055556  0.055556  0.000000    0.00308642   2 t-inv F
  0.000000 -0.055556 -0.000000    0.00308642   2 t-inv F
 -0.111111  0.111111  0.000000    0.00308642   3 t-inv F
  0.000000 -0.111111 -0.000000    0.00308642   3 t-inv F
 -0.166667  0.166667  0.000000    0.00308642   4 t-inv F
  0.000000 -0.166667 -0.000000    0.00308642   4 t-inv F
 -0.222222  0.222222  0.000000    0.00308642   5 t-inv F
  0.000000 -0.222222 -0.000000    0.00308642   5 t-inv F
 -0.277778  0.277778  0.000000    0.00308642   6 t-inv F
  0.000000 -0.277778 -0.000000    0.00308642   6 t-inv F
 -0.333333  0.333333  0.000000    0.00308642   7 t-inv F
  0.000000 -0.333333 -0.000000    0.00308642   7 t-inv F
 -0.388889  0.388889  0.000000    0.00308642   8 t-inv F
  0.000000 -0.388889 -0.000000    0.00308642   8 t-inv F
 -0.444444  0.444444  0.000000    0.00308642   9 t-inv F
  0.000000 -0.444444 -0.000000    0.00308642   9 t-inv F
 -0.500000  0.500000  0.000000    0.00308642  10 t-inv F
  0.000000 -0.500000 -0.000000    0.00308642  10 t-inv F
 -0.055556  0.111111  0.000000    0.00308642  11 t-inv F
  0.055556 -0.111111 -0.000000    0.00308642  11 t-inv F
 -0.111111  0.055556  0.000000    0.00308642  11 t-inv F
 -0.055556 -0.055556 -0.000000    0.00308642  11 t-inv F
  0.111111 -0.055556  0.000000    0.00308642  11 t-inv F
[...]
[...]
 augmentation part       -2.5303310 magnetization

[...]

 BZINTS: Fermi energy: -3.044991; 26.000000 electrons
         Band energy:-488.508794;  BLOECHL correction:  0.000000

 eigenvalue-minimisations  :  2884
 total energy-change (2. order) :-0.1471108E-08  ( 0.6155288E-11)
 number of electron      25.9999999 magnetization
 augmentation part       -2.5303310 magnetization

 Free energy of the ion-electron system (eV)
  alpha Z        PSCENC =         6.90136086
  Ewald energy   TEWEN  =     17617.27313082
  -Hartree energ DENC   =    -19552.93147536
  -exchange      EXHF   =         0.00000000
  -V(xc)+E(xc)   XCENC  =         9.45411990
  PAW double counting   =      1867.62393322    -1786.57461046
  entropy T*S    EENTRO =         0.00000000
  eigenvalues    EBANDS =      -488.50879358
  atomic energy  EATOM  =      2307.94840272
  Solvation  Ediel_sol  =         0.00000000
  free energy    TOTEN  =       -18.81393189 eV

  energy without entropy =      -18.81393189  energy(sigma->0) =      -18.81393189

 average (electrostatic) potential at core
  the test charge radii are     0.8928  1.1897
  (the norm of the test charge is              1.0000)
       1-109.7251       2 -97.2627       3 -97.2627

 E-fermi :  -3.0450     XC(G=0):  -1.7062     alpha+bet : -1.8386

 k-point     1 :       0.0000    0.0000    0.0000
  band No.  band energies     occupation
      1     -63.8083      2.00000
      2     -37.9532      2.00000
      3     -37.8419      2.00000
      4     -37.8419      2.00000
      5     -15.6771      2.00000
      6     -14.7363      2.00000
      7      -8.0487      2.00000
      8      -4.8257      2.00000
      9      -4.7639      2.00000
     10      -4.7639      2.00000
     11      -3.9907      2.00000
     12      -3.9907      2.00000
     13      -3.5711      2.00000
     14      -0.0452      0.00000
     15      -0.0452      0.00000
     16       0.2344      0.00000
     17       0.2344      0.00000
     18       1.0797      0.00000
     19       1.3491      0.00000
     20       1.7402      0.00000
     21       1.8293      0.00000
     22       1.9364      0.00000
     23       2.1526      0.00000
     24       2.3082      0.00000
     25       2.6459      0.00000
     26       2.7856      0.00000
     27       3.1378      0.00000
     28       3.2936      0.00000

[...]

 k-point    37 :       0.3333    0.3333    0.0000
  band No.  band energies     occupation
      1     -63.7982      2.00000
      2     -37.9322      2.00000
      3     -37.9232      2.00000
      4     -37.9162      2.00000
      5     -13.4338      2.00000
      6     -13.2055      2.00000
      7      -7.5870      2.00000
      8      -7.4464      2.00000
      9      -6.8887      2.00000
     10      -6.0361      2.00000
     11      -6.0224      2.00000
     12      -4.8269      2.00000
     13      -3.1149      2.00000
     14      -2.0255      0.00000
     15      -1.2282      0.00000
     16      -0.5909      0.00000
     17       0.9236      0.00000
     18       1.9759      0.00000
     19       2.0498      0.00000
     20       4.2417      0.00000
     21       5.2023      0.00000
     22       5.2770      0.00000
     23       6.1179      0.00000
     24       6.3695      0.00000
     25       6.5773      0.00000
     26       7.0368      0.00000
     27       7.0382      0.00000
     28       7.0527      0.00000

 soft charge-density along one line, spin component           1
         0         1         2         3         4         5         6         7         8         9
 total charge-density along one line

------------------------ aborting loop because EDIFF is reached ----------------------------------------

  Hirshfeld charges:
            ion         q(e)
      1     Mo          0.243
      2     Te         -0.122
      3     Te         -0.122

  Atomic reference data used in the T-S method for vdW correction:
            C6at              R0at           ALPHAat      REFSTATE
            (au)              (au)            (au)
   Mo       1028.730          4.101         88.420         0
   Te        396.000          4.214         37.650         0

  Tkatchenko/Scheffler method for vdW energy calculation

  Parameters of vdW forcefield:
            C6ts              R0ts           ALPHAts        RELVOL
            (au)              (au)            (au)
   Mo       1109.385          4.153         91.820          1.038
   Te        403.780          4.228         38.018          1.010
   Te        403.780          4.228         38.018          1.010

  IVDW =  20
  VDW_RADIUS =    50.000 A
  VDW_IDAMPF =  0
  VDW_S6 =     1.000
  VDW_SR =     0.940
  VDW_D =    20.000
  LVDW_EWALD = T
  Edisp (eV):   -0.71631

  FORCE on cell =-STRESS in cart. coord.  units (eV):
  Direction    XX          YY          ZZ          XY          YZ          ZX
  Alpha Z     6.90136     6.90136     6.90136
  Ewald   18868.94957 18868.94957-20120.62655    -0.00000     0.00000     0.00000
  Hartree 19269.64940 19269.64940-18986.36728    -0.00000    -0.00000    -0.00000
  E(xc)    -114.71128  -114.71128  -115.31337    -0.00000    -0.00000    -0.00000
  Local  -38643.05491-38643.05493 38596.18911    -0.00002     0.00000    -0.00000
  n-local   189.00413   187.92528   195.96035     1.46783    -0.00000    -0.00000
  augment   -54.91720   -54.91718   -57.18090     0.00002     0.00000     0.00000
  Kinetic   477.13937   479.66242   480.19233    -9.96844     0.00000    -0.00000
  Fock        0.00000     0.00000     0.00000     0.00000     0.00000     0.00000
  vdW        -0.71882    -0.71882    -0.35370     0.00000    -0.00000     0.00000
  Total      -1.03628    -1.03628    -0.59864     0.00000     0.00000    -0.00000
  in kB      -3.04697    -3.04697    -1.76019     0.00000     0.00000    -0.00000

 VOLUME and BASIS-vectors are now :
  energy-cutoff  :      344.91
  volume of cell :      544.90
      direct lattice vectors                 reciprocal lattice vectors
     3.547392312  0.000000000  0.000000000     0.281897211  0.162753431  0.000000000
    -1.773696156  3.072131859  0.000000000     0.000000000  0.325506862  0.000000000
     0.000000000  0.000000000 50.000000000     0.000000000  0.000000000  0.020000000

  length of vectors
     3.547392312  3.547392312 50.000000000     0.325506862  0.325506862  0.020000000

 FORCES acting on ions
    electron-ion (+dipol)            ewald-force                    non-local-force                 convergence-correction
   -.420E-07 0.243E-07 0.114E-10   0.889E-11 -.503E-11 -.114E-12   -.173E-17 -.694E-17 0.000E+00   -.536E-10 0.309E-10 -.356E-12
   -.153E-06 0.156E-06 -.852E+03   -.444E-11 0.252E-11 0.857E+03   -.260E-17 -.173E-17 -.523E+01   0.441E-12 -.254E-12 0.694E-06
   -.211E-06 0.547E-07 0.852E+03   -.444E-11 0.251E-11 -.857E+03   0.139E-16 -.173E-17 0.523E+01   0.442E-12 -.257E-12 -.694E-06
   -.407E-06 0.235E-06 0.289E-10   0.125E-14 0.369E-14 -.114E-12   0.954E-17 -.104E-16 0.000E+00   -.528E-10 0.304E-10 -.495E-12

 POSITION                                       TOTAL-FORCE (eV/Angst)
     -0.00000      1.02404     25.00000         0.000000     -0.000000      0.000000
      1.77370      2.04809     26.80510         0.000000      0.000000     -0.032288
      1.77370      2.04809     23.19490        -0.000000      0.000000      0.032288
    total drift:                               -0.000000      0.000000      0.000000

  FREE ENERGIE OF THE ION-ELECTRON SYSTEM (eV)
  free  energy   TOTEN  =       -19.53024429 eV

  energy  without entropy=      -19.53024429  energy(sigma->0) =      -19.53024429

 Linear response reoptimize wavefunctions
 Linear response G [H, r] |phi>, progress :
  Direction:   1

[...]

  free energy    TOTEN  =      -124.72514749 eV

[...]

 Linear response G [H, r] |phi>, progress :
  Direction:   2

[...]

 Linear response G [H, r] |phi>, progress :
  Direction:   3

[...]

  free energy    TOTEN  =      -137.21990788 eV

[...]

 Linear response to external field (no local field effect), progress :
  Direction:   1
  LATTYP: Found a hexagonal cell.
 ALAT       =     3.5473923118
 C/A-ratio  =    14.0948605637

[...]

The dynamic configuration has the point symmetry C_1h.

[...]

 Free energy of the ion-electron system (eV)
  -Hartree energ DENC   =         0.00000000
  -V(xc)+E(xc)   XCENC  =         0.00000000
  PAW double counting   =         0.00000000        0.00000000
  entropy T*S    EENTRO =         0.00000000
  eigenvalues    EBANDS =        -2.38683404
  free energy    TOTEN  =        -2.38683404 eV

  energy without entropy =       -2.38683404

[...]

 change of polarisation eV/A/(eV/A) component  1 :     7.997     0.037     0.000
 dielectric tensor                  component  1 :     3.656     0.012     0.000

[...]

The dynamic configuration has the point symmetry C_2v.

[...]

 Linear response to external field (no local field effect), progress :
  Direction:   3
  LATTYP: Found a hexagonal cell.
 ALAT       =     3.5473923118
 C/A-ratio  =    14.0948605637

[...]

The dynamic configuration has the point symmetry C_1h.
 The point group associated with its full space group is C_3v.

[...]

 HEAD OF MICROSCOPIC STATIC DIELECTRIC TENSOR (INDEPENDENT PARTICLE, excluding Hartree and local field effects)
           3.732160     0.000000     0.000000
           0.000000     3.732160     0.000000
          -0.000000     0.000000     2.273564

 Linear response to external field, progress :
  Direction:   1
  LATTYP: Found a hexagonal cell.
 ALAT       =     3.5473923118
 C/A-ratio  =    14.0948605637

[...]

The dynamic configuration has the point symmetry C_1h.

[...]

  Parameters of vdW forcefield:
            C6ts              R0ts           ALPHAts        RELVOL
            (au)              (au)            (au)
   Mo       1109.385          4.153         91.820          1.038
   Te        403.780          4.228         38.018          1.010
   Te        403.780          4.228         38.018          1.010
  Edisp (eV):   -0.71631

[...]

 PIEZOELECTRIC TENSOR FIELD DIRECTION 1  (e Angst)
    -0.00262 -1.61736  0.00000           ( -0.00001  0.05661  0.00000)
    -1.61736  0.00152  0.00000           (  0.05661  0.00007  0.00000)
     0.00000  0.00000 -0.00033           (  0.00000  0.00000  0.00003)

 PIEZOELECTRIC TENSOR FIELD DIRECTION 1  (C/m^2)
    -0.00008 -0.04756  0.00000
    -0.04756  0.00004  0.00000
     0.00000  0.00000 -0.00001

      POSITION         DIRECTION 1           BORN EFFECTIVE CHARGE    (rigid.aug.   ionic)
     -0.00000      1.02404     25.00000    -3.22506 -0.00078  0.00000 (  0.16229 14.00000)
      1.77370      2.04809     26.80510     1.60722 -0.00032 -0.00026 (  1.18402  6.00000)
      1.77370      2.04809     23.19490     1.60722 -0.00032  0.00026 (  1.18402  6.00000)
    total drift (improves with k-points):  -0.01063 -0.00141  0.00000

[...]

The dynamic configuration has the point symmetry C_2v.

[...]

 Linear response to external field, progress :
  Direction:   3
  LATTYP: Found a hexagonal cell.
 ALAT       =     3.5473923118
 C/A-ratio  =    14.0948605637

[...]

The dynamic configuration has the point symmetry C_1h.
 The point group associated with its full space group is C_3v.

[...]

----------------------------------------- Iteration    3(  21)  ---------------------------------------

 Broyden mixing:
  rms(total) = 0.95856E-06    rms(broyden)= 0.95850E-06
  rms(prec ) = 0.11437E-05
  weight for this iteration     100.00

 eigenvalues of (default mixing * dielectric matrix)
  average eigenvalue GAMMA=   2.5469
  8.4998  7.6038  4.9405  4.6457  3.0992  3.0992  2.2563  2.2563  1.9790  1.2692
  1.2692  1.2631  0.8063  1.0254  0.9447  0.9447  0.9877  0.9877  0.5128

 Free energy of the ion-electron system (eV)
  -Hartree energ DENC   =        -0.18004511
  -V(xc)+E(xc)   XCENC  =         0.00397290
  PAW double counting   =         0.00461731       -0.00454855
  entropy T*S    EENTRO =         0.00000000
  eigenvalues    EBANDS =        -0.04735067
  free energy    TOTEN  =        -0.22335411 eV

  energy without entropy =       -0.22335411

------------------------ aborting loop because EDIFF is reached ----------------------------------------

 change of polarisation eV/A/(eV/A) component  3 :     0.000    -0.000     0.433
 dielectric tensor                  component  3 :     0.000    -0.000     1.144

[...]

  Hirshfeld charges:
            ion         q(e)
      1     Mo          0.243
      2     Te         -0.122
      3     Te         -0.122

  Tkatchenko/Scheffler method for vdW energy calculation

  Parameters of vdW forcefield:
            C6ts              R0ts           ALPHAts        RELVOL
            (au)              (au)            (au)
   Mo       1109.385          4.153         91.820          1.038
   Te        403.780          4.228         38.018          1.010
   Te        403.780          4.228         38.018          1.010
  Edisp (eV):   -0.71631

 PIEZOELECTRIC TENSOR FIELD DIRECTION 3  (e Angst)
     0.00000  0.00000 -0.00000           ( -0.00000  0.00000 -0.00000)
     0.00000  0.00000  0.00000           (  0.00000 -0.00000  0.00000)
     0.00000  0.00000  0.00000           ( -0.00000  0.00000 -0.00000)

 PIEZOELECTRIC TENSOR FIELD DIRECTION 3  (C/m^2)
     0.00000  0.00000 -0.00000
     0.00000  0.00000  0.00000
     0.00000  0.00000  0.00000

      POSITION         DIRECTION 3           BORN EFFECTIVE CHARGE    (rigid.aug.   ionic)
     -0.00000      1.02404     25.00000     0.00000 -0.00000 -0.18589 (  0.16229 14.00000)
      1.77370      2.04809     26.80510    -0.00000 -0.00000  0.08894 (  1.18402  6.00000)
      1.77370      2.04809     23.19490     0.00000  0.00000  0.08894 (  1.18402  6.00000)
    total drift (improves with k-points):  -0.00000  0.00000 -0.00801

[...]

 MACROSCOPIC STATIC DIELECTRIC TENSOR (including local field effects in DFT)
           3.609281     0.000000     0.000000
           0.000000     3.609281     0.000000
           0.000000     0.000000     1.143926

  LATTYP: Found a hexagonal cell.
 ALAT       =     3.5473923118
 C/A-ratio  =    14.0948605637

  Lattice vectors:

 A1 = (   3.5473923118,   0.0000000000,   0.0000000000)
 A2 = (  -1.7736961559,   3.0721318592,   0.0000000000)
 A3 = (   0.0000000000,   0.0000000000,  50.0000000000)

Analysis of symmetry for initial positions (statically):
 Subroutine PRICEL returns:
 Original cell was already a primitive cell.

[...]

The static configuration has the point symmetry C_2v.
 The point group associated with its full space group is D_3h.

Analysis of symmetry for dynamics (positions and initial velocities):
 Subroutine PRICEL returns:
 Original cell was already a primitive cell.

 Routine SETGRP: Setting up the symmetry group for a
 hexagonal supercell.

 Subroutine GETGRP returns: Found 12 space group operations
 (whereof  4 operations were pure point group operations)
 out of a pool of 24 trial point group operations.

The dynamic configuration has the point symmetry C_2v.
 The point group associated with its full space group is D_3h.

 Subroutine INISYM returns: Found 12 space group operations
 (whereof  4 operations are pure point group operations),
 and found     1 'primitive' translations

 MACROSCOPIC STATIC DIELECTRIC TENSOR (including local field effects in DFT)
           3.609281     0.000000     0.000000
           0.000000     3.609281     0.000000
           0.000000     0.000000     1.143926

 PIEZOELECTRIC TENSOR  for field in x, y, z        (e  Angst)
          XX          YY          ZZ          XY          YZ          ZX
  x    -0.00262     0.00152    -0.00033    -1.61736     0.00000     0.00000
  y    -1.62042     1.62262     0.00132     0.00000     0.00000     0.00000
  z     0.00000     0.00000     0.00000     0.00000     0.00000    -0.00000

 PIEZOELECTRIC TENSOR  for field in x, y, z        (C/m^2)
          XX          YY          ZZ          XY          YZ          ZX
  x     0.00000     0.00000     0.00000    -0.04762     0.00000     0.00000
  y    -0.04762     0.04762     0.00000     0.00000     0.00000     0.00000
  z     0.00000     0.00000     0.00000     0.00000     0.00000     0.00000

 BORN EFFECTIVE CHARGES (in e, cummulative output)
 ion    1
    1    -3.22506    -0.00078     0.00000
    2     0.00000    -3.22534     0.00000
    3     0.00000    -0.00000    -0.18589
 ion    2
    1     1.60722    -0.00032    -0.00026
    2     0.00000     1.60737     0.00080
    3    -0.00000    -0.00000     0.08894
 ion    3
    1     1.60722    -0.00032     0.00026
    2     0.00000     1.60737    -0.00080
    3     0.00000     0.00000     0.08894

 writing wavefunctions
 BZINTS: Fermi energy: -3.045498; 26.000000 electrons
         Band energy:-488.508752;  BLOECHL correction:  0.000000