 vasp.5.4.1 24Jun15 (build Apr 13 2016 13:07:19) complex

 executed on           IFC91_ompi date 2019.09.13  23:33:59

 INCAR:
 POTCAR:    PAW_PBE W_sv_GW 23Mar2010
 POTCAR:    PAW_PBE Se_GW 20Mar2012

 POTCAR:    PAW_PBE W_sv_GW 23Mar2010
   VRHFIN =W: 5p6s5d

   TITEL  = PAW_PBE W_sv_GW 23Mar2010
   POMASS =  183.850; ZVAL   =   14.000    mass and valenz
   ENMAX  =  317.132; ENMIN  =  237.849 eV

 POTCAR:    PAW_PBE Se_GW 20Mar2012
   VRHFIN =Se: s2p4

   TITEL  = PAW_PBE Se_GW 20Mar2012
   POMASS =   78.960; ZVAL   =    6.000    mass and valenz
   ENMAX  =  211.555; ENMIN  =  158.666 eV

  PAW_PBE W_sv_GW 23Mar2010             :
  PAW_PBE Se_GW 20Mar2012               :

 POSCAR:  W Se
  positions in cartesian coordinates
 exchange correlation table for  LEXCH =        8
   RHO(1)=    0.500       N(1)  =     2000
   RHO(2)=  100.500       N(2)  =     4000

 ion  position               nearest neighbor table
   1  0.167  0.333  0.500-   2 2.55   3 2.55   2 2.55   3 2.55   2 2.55   3 2.55
   2  0.833  0.667  0.534-   1 2.55   1 2.55   1 2.55
   3  0.833  0.667  0.466-   1 2.55   1 2.55   1 2.55

  LATTYP: Found a hexagonal cell.
 ALAT       =     3.3190066245
 C/A-ratio  =    15.0647484797

  Lattice vectors:

 A1 = (   3.3190066245,   0.0000000000,   0.0000000000)
 A2 = (  -1.6595033122,   2.8743440521,   0.0000000000)
 A3 = (   0.0000000000,   0.0000000000,  50.0000000000)

Analysis of symmetry for initial positions (statically):
 Subroutine PRICEL returns:
 Original cell was already a primitive cell.

 Routine SETGRP: Setting up the symmetry group for a
 hexagonal supercell.

 Subroutine GETGRP returns: Found 12 space group operations
 (whereof  4 operations were pure point group operations)
 out of a pool of 24 trial point group operations.

The static configuration has the point symmetry C_2v.
 The point group associated with its full space group is D_3h.

Analysis of symmetry for dynamics (positions and initial velocities):
 Subroutine PRICEL returns:
 Original cell was already a primitive cell.

[...]

The dynamic configuration has the point symmetry C_2v.
 The point group associated with its full space group is D_3h.

 Subroutine INISYM returns: Found 12 space group operations
 (whereof  4 operations are pure point group operations),
 and found     1 'primitive' translations

 KPOINTS: KPOINTS created by Atomic Simulation Env

Automatic generation of k-mesh.
Space group operators:
 irot       det(A)        alpha          n_x          n_y          n_z        tau_x        tau_y        tau_z
    1     1.000000     0.000000     1.000000     0.000000     0.000000     0.000000     0.000000     0.000000
    2    -1.000000   179.999999     0.000000     0.000000     1.000000     0.000000     0.000000     0.000000
    3    -1.000000   180.000000     1.000000     0.000000     0.000000     0.000000     0.000000     0.000000
    4     1.000000   180.000000     0.000000     1.000000     0.000000     0.000000     0.000000     0.000000
    5    -1.000000    60.000000     0.000000     0.000000    -1.000000    -0.000000     0.500000     0.000000
    6     1.000000   120.000000     0.000000     0.000000    -1.000000     0.500000     0.500000     0.000000
    7     1.000000   120.000000     0.000000     0.000000     1.000000    -0.000000     0.500000     0.000000
    8    -1.000000    60.000000     0.000000     0.000000     1.000000     0.500000     0.500000     0.000000
    9     1.000000   180.000000     0.866025    -0.500000     0.000000     0.500000     0.500000     0.000000
   10    -1.000000   180.000000     0.500000    -0.866025     0.000000     0.000000     0.500000     0.000000
   11    -1.000000   180.000000    -0.500000    -0.866025     0.000000     0.500000     0.500000     0.000000
   12     1.000000   180.000000     0.866025     0.500000     0.000000     0.000000     0.500000     0.000000

 Subroutine IBZKPT returns following result:

 Found     37 irreducible k-points:

 Following reciprocal coordinates:
            Coordinates               Weight
  0.000000  0.000000  0.000000      1.000000
  0.055556  0.000000  0.000000      6.000000
  0.111111  0.000000  0.000000      6.000000
  0.166667  0.000000  0.000000      6.000000
  0.222222  0.000000  0.000000      6.000000
  0.277778  0.000000  0.000000      6.000000
  0.333333  0.000000  0.000000      6.000000
  0.388889  0.000000  0.000000      6.000000
  0.444444  0.000000  0.000000      6.000000
  0.500000  0.000000  0.000000      3.000000
  0.055556  0.055556  0.000000      6.000000
  0.111111  0.055556  0.000000     12.000000
  0.166667  0.055556  0.000000     12.000000
  0.222222  0.055556  0.000000     12.000000
  0.277778  0.055556  0.000000     12.000000
  0.333333  0.055556  0.000000     12.000000
  0.388889  0.055556  0.000000     12.000000
  0.444444  0.055556  0.000000     12.000000
  0.111111  0.111111  0.000000      6.000000
  0.166667  0.111111  0.000000     12.000000
  0.222222  0.111111  0.000000     12.000000
  0.277778  0.111111  0.000000     12.000000
  0.333333  0.111111  0.000000     12.000000
  0.388889  0.111111  0.000000     12.000000
  0.444444  0.111111  0.000000      6.000000
  0.166667  0.166667  0.000000      6.000000
  0.222222  0.166667  0.000000     12.000000
  0.277778  0.166667  0.000000     12.000000
  0.333333  0.166667  0.000000     12.000000
  0.388889  0.166667  0.000000     12.000000
  0.222222  0.222222  0.000000      6.000000
  0.277778  0.222222  0.000000     12.000000
  0.333333  0.222222  0.000000     12.000000
  0.388889  0.222222  0.000000      6.000000
  0.277778  0.277778  0.000000      6.000000
  0.333333  0.277778  0.000000     12.000000
  0.333333  0.333333  0.000000      2.000000

 Following cartesian coordinates:
            Coordinates               Weight
  0.000000  0.000000  0.000000      1.000000
  0.016739  0.009664  0.000000      6.000000
  0.033477  0.019328  0.000000      6.000000
  0.050216  0.028992  0.000000      6.000000
  0.066954  0.038656  0.000000      6.000000
  0.083693  0.048320  0.000000      6.000000
  0.100432  0.057984  0.000000      6.000000
  0.117170  0.067648  0.000000      6.000000
  0.133909  0.077312  0.000000      6.000000
  0.150647  0.086976  0.000000      3.000000
  0.016739  0.028992  0.000000      6.000000
  0.033477  0.038656  0.000000     12.000000
  0.050216  0.048320  0.000000     12.000000
  0.066954  0.057984  0.000000     12.000000
  0.083693  0.067648  0.000000     12.000000
  0.100432  0.077312  0.000000     12.000000
  0.117170  0.086976  0.000000     12.000000
  0.133909  0.096640  0.000000     12.000000
  0.033477  0.057984  0.000000      6.000000
  0.050216  0.067648  0.000000     12.000000
  0.066954  0.077312  0.000000     12.000000
  0.083693  0.086976  0.000000     12.000000
  0.100432  0.096640  0.000000     12.000000
  0.117170  0.106304  0.000000     12.000000
  0.133909  0.115968  0.000000      6.000000
  0.050216  0.086976  0.000000      6.000000
  0.066954  0.096640  0.000000     12.000000
  0.083693  0.106304  0.000000     12.000000
  0.100432  0.115968  0.000000     12.000000
  0.117170  0.125633  0.000000     12.000000
  0.066954  0.115968  0.000000      6.000000
  0.083693  0.125633  0.000000     12.000000
  0.100432  0.135297  0.000000     12.000000
  0.117170  0.144961  0.000000      6.000000
  0.083693  0.144961  0.000000      6.000000
  0.100432  0.154625  0.000000     12.000000
  0.100432  0.173953  0.000000      2.000000

 TETIRR: Found    169 inequivalent tetrahedra from     1944

 Subroutine IBZKPT_HF returns following result:

 Found    324 k-points in 1st BZ
 the following    324 k-points will be used (e.g. in the exchange kernel)
 Following reciprocal coordinates:   # in IRBZ
  0.000000  0.000000  0.000000    0.00308642   1 t-inv F
  0.055556  0.000000  0.000000    0.00308642   2 t-inv F
  0.111111  0.000000  0.000000    0.00308642   3 t-inv F
  0.166667  0.000000  0.000000    0.00308642   4 t-inv F
  0.222222  0.000000  0.000000    0.00308642   5 t-inv F
  0.277778  0.000000  0.000000    0.00308642   6 t-inv F
  0.333333  0.000000  0.000000    0.00308642   7 t-inv F
  0.388889  0.000000  0.000000    0.00308642   8 t-inv F
  0.444444  0.000000  0.000000    0.00308642   9 t-inv F
  0.500000  0.000000  0.000000    0.00308642  10 t-inv F
  0.055556  0.055556  0.000000    0.00308642  11 t-inv F
  0.111111  0.055556  0.000000    0.00308642  12 t-inv F
  0.166667  0.055556  0.000000    0.00308642  13 t-inv F
  0.222222  0.055556  0.000000    0.00308642  14 t-inv F
  0.277778  0.055556  0.000000    0.00308642  15 t-inv F
  0.333333  0.055556  0.000000    0.00308642  16 t-inv F
  0.388889  0.055556  0.000000    0.00308642  17 t-inv F
  0.444444  0.055556  0.000000    0.00308642  18 t-inv F
  0.111111  0.111111  0.000000    0.00308642  19 t-inv F
  0.166667  0.111111  0.000000    0.00308642  20 t-inv F
  0.222222  0.111111  0.000000    0.00308642  21 t-inv F
  0.277778  0.111111  0.000000    0.00308642  22 t-inv F
  0.333333  0.111111  0.000000    0.00308642  23 t-inv F
  0.388889  0.111111  0.000000    0.00308642  24 t-inv F
  0.444444  0.111111  0.000000    0.00308642  25 t-inv F
  0.166667  0.166667  0.000000    0.00308642  26 t-inv F
  0.222222  0.166667  0.000000    0.00308642  27 t-inv F
  0.277778  0.166667  0.000000    0.00308642  28 t-inv F
  0.333333  0.166667  0.000000    0.00308642  29 t-inv F
  0.388889  0.166667  0.000000    0.00308642  30 t-inv F
  0.222222  0.222222  0.000000    0.00308642  31 t-inv F
  0.277778  0.222222  0.000000    0.00308642  32 t-inv F
  0.333333  0.222222  0.000000    0.00308642  33 t-inv F
  0.388889  0.222222  0.000000    0.00308642  34 t-inv F
  0.277778  0.277778  0.000000    0.00308642  35 t-inv F
  0.333333  0.277778  0.000000    0.00308642  36 t-inv F
  0.333333  0.333333  0.000000    0.00308642  37 t-inv F
 -0.055556  0.055556  0.000000    0.00308642   2 t-inv F
  0.000000 -0.055556 -0.000000    0.00308642   2 t-inv F
 -0.111111  0.111111  0.000000    0.00308642   3 t-inv F
  0.000000 -0.111111 -0.000000    0.00308642   3 t-inv F
 -0.166667  0.166667  0.000000    0.00308642   4 t-inv F
  0.000000 -0.166667 -0.000000    0.00308642   4 t-inv F
 -0.222222  0.222222  0.000000    0.00308642   5 t-inv F
  0.000000 -0.222222 -0.000000    0.00308642   5 t-inv F
 -0.277778  0.277778  0.000000    0.00308642   6 t-inv F
  0.000000 -0.277778 -0.000000    0.00308642   6 t-inv F
 -0.333333  0.333333  0.000000    0.00308642   7 t-inv F
  0.000000 -0.333333 -0.000000    0.00308642   7 t-inv F
 -0.388889  0.388889  0.000000    0.00308642   8 t-inv F
  0.000000 -0.388889 -0.000000    0.00308642   8 t-inv F
 -0.444444  0.444444  0.000000    0.00308642   9 t-inv F
  0.000000 -0.444444 -0.000000    0.00308642   9 t-inv F
 -0.500000  0.500000  0.000000    0.00308642  10 t-inv F
  0.000000 -0.500000 -0.000000    0.00308642  10 t-inv F
 -0.055556  0.111111  0.000000    0.00308642  11 t-inv F
  0.055556 -0.111111 -0.000000    0.00308642  11 t-inv F
 -0.111111  0.055556  0.000000    0.00308642  11 t-inv F
 -0.055556 -0.055556 -0.000000    0.00308642  11 t-inv F
  0.111111 -0.055556  0.000000    0.00308642  11 t-inv F
[...]
  0.500000 -0.277778 -0.000000    0.00308642  32 t-inv T
[...]
 number of electron      25.9999994 magnetization
 augmentation part       -4.1978164 magnetization

[...]

 BZINTS: Fermi energy: -3.498912; 26.000000 electrons
         Band energy:-567.317012;  BLOECHL correction:  0.000000

 eigenvalue-minimisations  :  2716
 total energy-change (2. order) :-0.3219611E-08  (-0.4550681E-12)
 number of electron      25.9999994 magnetization
 augmentation part       -4.1978164 magnetization

 Free energy of the ion-electron system (eV)
  alpha Z        PSCENC =        14.50116509
  Ewald energy   TEWEN  =     20556.70017838
  -Hartree energ DENC   =    -22513.62421172
  -exchange      EXHF   =         0.00000000
  -V(xc)+E(xc)   XCENC  =       -20.29659931
  PAW double counting   =      3061.90690657    -2933.45922300
  entropy T*S    EENTRO =         0.00000000
  eigenvalues    EBANDS =      -567.31701185
  atomic energy  EATOM  =      2377.91213554
  Solvation  Ediel_sol  =         0.00000000
  free energy    TOTEN  =       -23.67666031 eV

  energy without entropy =      -23.67666031  energy(sigma->0) =      -23.67666031

 average (electrostatic) potential at core
  the test charge radii are     0.9757  1.0808
  (the norm of the test charge is              1.0000)
       1-100.5753       2 -61.8987       3 -61.8987

 E-fermi :  -3.4989     XC(G=0):  -1.6674     alpha+bet : -1.5327

 k-point     1 :       0.0000    0.0000    0.0000
  band No.  band energies     occupation
      1     -77.7475      2.00000
      2     -41.9566      2.00000
      3     -41.8545      2.00000
      4     -41.8545      2.00000
      5     -18.3416      2.00000
      6     -17.1097      2.00000
      7      -9.7697      2.00000
      8      -5.9817      2.00000
      9      -5.9817      2.00000
     10      -5.7965      2.00000
     11      -4.8767      2.00000
     12      -4.8767      2.00000
     13      -3.9725      2.00000
     14      -0.7509      0.00000
     15      -0.7509      0.00000
     16      -0.5853      0.00000
     17      -0.5853      0.00000
     18       0.5603      0.00000
     19       1.0628      0.00000
     20       1.3788      0.00000
     21       1.4776      0.00000
     22       1.4911      0.00000
     23       1.7131      0.00000
     24       1.7933      0.00000
     25       2.0800      0.00000
     26       2.2778      0.00000
     27       2.6093      0.00000
     28       2.9149      0.00000

[...]

 k-point    37 :       0.3333    0.3333    0.0000
  band No.  band energies     occupation
      1     -77.7347      2.00000
      2     -42.0052      2.00000
      3     -41.9836      2.00000
      4     -41.9092      2.00000
      5     -16.1466      2.00000
      6     -16.0184      2.00000
      7      -8.9429      2.00000
      8      -8.8457      2.00000
      9      -7.9547      2.00000
     10      -7.3642      2.00000
     11      -6.9056      2.00000
     12      -5.9710      2.00000
     13      -3.6476      2.00000
     14      -2.0955      0.00000
     15      -0.8314      0.00000
     16      -0.2024      0.00000
     17       1.1898      0.00000
     18       2.1026      0.00000
     19       2.7286      0.00000
     20       4.9731      0.00000
     21       5.7892      0.00000
     22       6.2978      0.00000
     23       6.7984      0.00000
     24       6.8324      0.00000
     25       6.9133      0.00000
     26       7.4471      0.00000
     27       7.4572      0.00000
     28       7.4733      0.00000

 soft charge-density along one line, spin component           1
         0         1         2         3         4         5         6         7         8         9
 total charge-density along one line

------------------------ aborting loop because EDIFF is reached ----------------------------------------

  Hirshfeld charges:
            ion         q(e)
      1     W           0.287
      2     Se         -0.143
      3     Se         -0.143

  Atomic reference data used in the T-S method for vdW correction:
            C6at              R0at           ALPHAat      REFSTATE
            (au)              (au)            (au)
   W         847.930          4.082         71.041         0
   Se        210.000          4.044         25.000         0

  Tkatchenko/Scheffler method for vdW energy calculation

  Parameters of vdW forcefield:
            C6ts              R0ts           ALPHAts        RELVOL
            (au)              (au)            (au)
   W         890.217          4.115         72.791          1.025
   Se        209.333          4.042         24.960          0.998
   Se        209.333          4.042         24.960          0.998

  IVDW =  20
  VDW_RADIUS =    50.000 A
  VDW_IDAMPF =  0
  VDW_S6 =     1.000
  VDW_SR =     0.940
  VDW_D =    20.000
  LVDW_EWALD = T
  Edisp (eV):   -0.59190

  FORCE on cell =-STRESS in cart. coord.  units (eV):
  Direction    XX          YY          ZZ          XY          YZ          ZX
  Alpha Z    14.50117    14.50117    14.50117
  Ewald   21896.16983 21896.16983-23235.63987    -0.00000     0.00000     0.00000
  Hartree 22270.20911 22270.20911-22026.79395    -0.00000    -0.00000    -0.00000
  E(xc)    -127.16052  -127.16052  -127.51009     0.00000    -0.00000    -0.00000
  Local  -44572.36017-44572.36021 44852.71160    -0.00004    -0.00000     0.00000
  n-local    -8.91723    -8.61451    -6.96206     1.51364     0.00000     0.00000
  augment   -42.19663   -42.19659   -42.65049     0.00003    -0.00000     0.00000
  Kinetic   566.25879   569.76074   570.71498   -14.41920    -0.00000    -0.00000
  Fock        0.00000     0.00000     0.00000     0.00000     0.00000     0.00000
  vdW        -0.62043    -0.62043    -0.20943     0.00000    -0.00000    -0.00000
  Total      -2.21375    -2.21375    -1.83814     0.00000     0.00000     0.00000
  in kB      -7.43571    -7.43571    -6.17408     0.00000     0.00000     0.00000

 VOLUME and BASIS-vectors are now :
  energy-cutoff  :      317.13
  volume of cell :      477.00
      direct lattice vectors                 reciprocal lattice vectors
     3.319006624  0.000000000  0.000000000     0.301294970  0.173952732  0.000000000
    -1.659503312  2.874344052  0.000000000     0.000000000  0.347905464  0.000000000
     0.000000000  0.000000000 50.000000000     0.000000000  0.000000000  0.020000000

  length of vectors
     3.319006624  3.319006624 50.000000000     0.347905464  0.347905464  0.020000000

 FORCES acting on ions
    electron-ion (+dipol)            ewald-force                    non-local-force                 convergence-correction
   0.263E-06 -.152E-06 0.125E-10   0.104E-10 -.600E-11 0.000E+00   -.152E-17 0.130E-17 0.000E+00   -.337E-10 0.194E-10 -.131E-11
   -.118E-06 -.116E-06 -.983E+03   -.519E-11 0.298E-11 0.986E+03   0.260E-17 -.694E-17 -.261E+01   -.521E-11 0.301E-11 -.107E-05
   0.416E-07 0.160E-06 0.983E+03   -.519E-11 0.298E-11 -.986E+03   -.867E-18 -.520E-17 0.261E+01   -.521E-11 0.301E-11 0.107E-05
   0.187E-06 -.108E-06 0.294E-10   0.315E-13 -.406E-13 0.000E+00   0.217E-18 -.108E-16 0.000E+00   -.441E-10 0.254E-10 -.260E-11

 POSITION                                       TOTAL-FORCE (eV/Angst)
     -0.00000      0.95811     25.00000        -0.000000     -0.000000      0.000000
      1.65950      1.91623     26.67928         0.000000     -0.000000     -0.042781
      1.65950      1.91623     23.32072         0.000000      0.000000      0.042781
    total drift:                                0.000000     -0.000000      0.000000

  FREE ENERGIE OF THE ION-ELECTRON SYSTEM (eV)
  free  energy   TOTEN  =       -24.26856440 eV

  energy  without entropy=      -24.26856440  energy(sigma->0) =      -24.26856440

 Linear response reoptimize wavefunctions
 Linear response G [H, r] |phi>, progress :
  Direction:   1

[...]

  free energy    TOTEN  =      -118.64189531 eV

[...]

 Linear response G [H, r] |phi>, progress :
  Direction:   2

[...]

 Linear response G [H, r] |phi>, progress :
  Direction:   3

[...]

  free energy    TOTEN  =      -120.47016991 eV

[...]

 Linear response to external field (no local field effect), progress :
  Direction:   1
  LATTYP: Found a hexagonal cell.
 ALAT       =     3.3190066245
 C/A-ratio  =    15.0647484797

[...]

The dynamic configuration has the point symmetry C_1h.

[...]

 Free energy of the ion-electron system (eV)
  -Hartree energ DENC   =         0.00000000
  -V(xc)+E(xc)   XCENC  =         0.00000000
  PAW double counting   =         0.00000000        0.00000000
  entropy T*S    EENTRO =         0.00000000
  eigenvalues    EBANDS =        -2.10297621
  free energy    TOTEN  =        -2.10297621 eV

  energy without entropy =       -2.10297621

[...]

 change of polarisation eV/A/(eV/A) component  1 :     5.153    -0.433     0.000
 dielectric tensor                  component  1 :     2.955    -0.164     0.000

[...]

The dynamic configuration has the point symmetry C_2v.

[...]

 Linear response to external field (no local field effect), progress :
  Direction:   3
  LATTYP: Found a hexagonal cell.
 ALAT       =     3.3190066245
 C/A-ratio  =    15.0647484797

[...]

The dynamic configuration has the point symmetry C_1h.
 The point group associated with its full space group is C_3v.

[...]

 HEAD OF MICROSCOPIC STATIC DIELECTRIC TENSOR (INDEPENDENT PARTICLE, excluding Hartree and local field effects)
           2.918625     0.000000     0.000000
           0.000000     2.918625     0.000000
          -0.000000     0.000000     2.014451

 Linear response to external field, progress :
  Direction:   1
  LATTYP: Found a hexagonal cell.
 ALAT       =     3.3190066245
 C/A-ratio  =    15.0647484797

[...]

The dynamic configuration has the point symmetry C_1h.

[...]

  Parameters of vdW forcefield:
            C6ts              R0ts           ALPHAts        RELVOL
            (au)              (au)            (au)
   W         890.217          4.115         72.791          1.025
   Se        209.333          4.042         24.960          0.998
   Se        209.333          4.042         24.960          0.998
  Edisp (eV):   -0.59190

[...]

 PIEZOELECTRIC TENSOR FIELD DIRECTION 1  (e Angst)
    -0.00280 -0.97721  0.00000           ( -0.00000  0.07403  0.00000)
    -0.97718  0.00214  0.00000           (  0.07403  0.00002  0.00000)
     0.00000  0.00000 -0.00026           (  0.00000  0.00000  0.00001)

 PIEZOELECTRIC TENSOR FIELD DIRECTION 1  (C/m^2)
    -0.00009 -0.03282  0.00000
    -0.03282  0.00007  0.00000
     0.00000  0.00000 -0.00001

      POSITION         DIRECTION 1           BORN EFFECTIVE CHARGE    (rigid.aug.   ionic)
     -0.00000      0.95811     25.00000    -1.11665 -0.00068  0.00000 (  1.95585 14.00000)
      1.65950      1.91623     26.67928     0.58401 -0.00033 -0.00015 (  1.12098  6.00000)
      1.65950      1.91623     23.32072     0.58401 -0.00033  0.00015 (  1.12098  6.00000)
    total drift (improves with k-points):   0.05137 -0.00135  0.00000

[...]

The dynamic configuration has the point symmetry C_2v.

[...]

 Linear response to external field, progress :
  Direction:   3
  LATTYP: Found a hexagonal cell.
 ALAT       =     3.3190066245
 C/A-ratio  =    15.0647484797

[...]

The dynamic configuration has the point symmetry C_1h.
 The point group associated with its full space group is C_3v.

[...]

----------------------------------------- Iteration    3(  20)  ---------------------------------------

 Broyden mixing:
  rms(total) = 0.74410E-06    rms(broyden)= 0.74404E-06
  rms(prec ) = 0.92396E-06
  weight for this iteration     100.00

 eigenvalues of (default mixing * dielectric matrix)
  average eigenvalue GAMMA=   2.5813
  8.5443  7.3307  5.0535  4.2897  2.9824  2.9824  2.1552  2.1552  1.7294  1.5586
  0.8209  1.1972  1.0259  1.0259  1.0232  0.9650  0.9650  0.6587

 Free energy of the ion-electron system (eV)
  -Hartree energ DENC   =        -0.13578463
  -V(xc)+E(xc)   XCENC  =         0.00349220
  PAW double counting   =         0.00499597       -0.00495795
  entropy T*S    EENTRO =         0.00000000
  eigenvalues    EBANDS =        -0.03722423
  free energy    TOTEN  =        -0.16947864 eV

  energy without entropy =       -0.16947864

------------------------ aborting loop because EDIFF is reached ----------------------------------------

 change of polarisation eV/A/(eV/A) component  3 :     0.000    -0.000     0.331
 dielectric tensor                  component  3 :     0.000    -0.000     1.125

[...]

  Hirshfeld charges:
            ion         q(e)
      1     W           0.287
      2     Se         -0.143
      3     Se         -0.143

  Tkatchenko/Scheffler method for vdW energy calculation

  Parameters of vdW forcefield:
            C6ts              R0ts           ALPHAts        RELVOL
            (au)              (au)            (au)
   W         890.217          4.115         72.791          1.025
   Se        209.333          4.042         24.960          0.998
   Se        209.333          4.042         24.960          0.998
  Edisp (eV):   -0.59190

 PIEZOELECTRIC TENSOR FIELD DIRECTION 3  (e Angst)
     0.00003 -0.00000 -0.00000           (  0.00000 -0.00000  0.00000)
     0.00000  0.00003 -0.00000           ( -0.00000  0.00000 -0.00000)
     0.00000  0.00000  0.00003           (  0.00000 -0.00000 -0.00000)

 PIEZOELECTRIC TENSOR FIELD DIRECTION 3  (C/m^2)
     0.00000 -0.00000 -0.00000
     0.00000  0.00000 -0.00000
     0.00000  0.00000  0.00000

      POSITION         DIRECTION 3           BORN EFFECTIVE CHARGE    (rigid.aug.   ionic)
     -0.00000      0.95811     25.00000     0.00000 -0.00000 -0.04234 (  1.95585 14.00000)
      1.65950      1.91623     26.67928     0.00000  0.00000  0.04351 (  1.12098  6.00000)
      1.65950      1.91623     23.32072     0.00000 -0.00000  0.04351 (  1.12098  6.00000)
    total drift (improves with k-points):   0.00000 -0.00000  0.04468

[...]

 MACROSCOPIC STATIC DIELECTRIC TENSOR (including local field effects in DFT)
           2.837653    -0.000000     0.000000
           0.000000     2.837653     0.000000
           0.000000     0.000000     1.125495

  LATTYP: Found a hexagonal cell.
 ALAT       =     3.3190066245
 C/A-ratio  =    15.0647484797

  Lattice vectors:

 A1 = (   3.3190066245,   0.0000000000,   0.0000000000)
 A2 = (  -1.6595033122,   2.8743440521,   0.0000000000)
 A3 = (   0.0000000000,   0.0000000000,  50.0000000000)

Analysis of symmetry for initial positions (statically):
 Subroutine PRICEL returns:
 Original cell was already a primitive cell.

[...]

The static configuration has the point symmetry C_2v.
 The point group associated with its full space group is D_3h.

Analysis of symmetry for dynamics (positions and initial velocities):
 Subroutine PRICEL returns:
 Original cell was already a primitive cell.

 Routine SETGRP: Setting up the symmetry group for a
 hexagonal supercell.

 Subroutine GETGRP returns: Found 12 space group operations
 (whereof  4 operations were pure point group operations)
 out of a pool of 24 trial point group operations.

The dynamic configuration has the point symmetry C_2v.
 The point group associated with its full space group is D_3h.

 Subroutine INISYM returns: Found 12 space group operations
 (whereof  4 operations are pure point group operations),
 and found     1 'primitive' translations

 MACROSCOPIC STATIC DIELECTRIC TENSOR (including local field effects in DFT)
           2.837653    -0.000000     0.000000
           0.000000     2.837653     0.000000
           0.000000     0.000000     1.125495

 PIEZOELECTRIC TENSOR  for field in x, y, z        (e  Angst)
          XX          YY          ZZ          XY          YZ          ZX
  x    -0.00280     0.00214    -0.00026    -0.97718     0.00000     0.00000
  y    -0.97959     0.98070     0.00085     0.00000     0.00000     0.00000
  z     0.00003     0.00003     0.00003     0.00000     0.00000    -0.00000

 PIEZOELECTRIC TENSOR  for field in x, y, z        (C/m^2)
          XX          YY          ZZ          XY          YZ          ZX
  x     0.00000     0.00000     0.00000    -0.03287     0.00000     0.00000
  y    -0.03287     0.03287     0.00000     0.00000     0.00000     0.00000
  z     0.00000     0.00000     0.00000     0.00000    -0.00000     0.00000

 BORN EFFECTIVE CHARGES (in e, cummulative output)
 ion    1
    1    -1.11665    -0.00068     0.00000
    2    -0.00000    -1.11730     0.00000
    3     0.00000    -0.00000    -0.04234
 ion    2
    1     0.58401    -0.00033    -0.00015
    2    -0.00000     0.58433     0.00041
    3     0.00000     0.00000     0.04351
 ion    3
    1     0.58401    -0.00033     0.00015
    2    -0.00000     0.58433    -0.00041
    3     0.00000    -0.00000     0.04351

 writing wavefunctions
 BZINTS: Fermi energy: -3.499131; 26.000000 electrons
         Band energy:-567.316959;  BLOECHL correction:  0.000000