 vasp.5.4.1 24Jun15 (build Apr 13 2016 13:07:19) complex

 executed on           IFC91_ompi date 2019.09.13  23:44:38

 INCAR:
 POTCAR:    PAW_PBE W_sv_GW 23Mar2010
 POTCAR:    PAW_PBE Se_GW 20Mar2012

 POTCAR:    PAW_PBE W_sv_GW 23Mar2010
   VRHFIN =W: 5p6s5d

   TITEL  = PAW_PBE W_sv_GW 23Mar2010
   POMASS =  183.850; ZVAL   =   14.000    mass and valenz
   ENMAX  =  317.132; ENMIN  =  237.849 eV

 POTCAR:    PAW_PBE Se_GW 20Mar2012
   VRHFIN =Se: s2p4

   TITEL  = PAW_PBE Se_GW 20Mar2012
   POMASS =   78.960; ZVAL   =    6.000    mass and valenz
   ENMAX  =  211.555; ENMIN  =  158.666 eV

  PAW_PBE W_sv_GW 23Mar2010             :
  PAW_PBE Se_GW 20Mar2012               :

 POSCAR:  W Se
  positions in cartesian coordinates
 exchange correlation table for  LEXCH =        8
   RHO(1)=    0.500       N(1)  =     2000
   RHO(2)=  100.500       N(2)  =     4000

 ion  position               nearest neighbor table
   1  0.167  0.333  0.370-   5 2.55   5 2.55   5 2.55   4 2.55   4 2.55   4 2.55
   2  0.833  0.667  0.500-   6 2.55   7 2.55   6 2.55   7 2.55   6 2.55   7 2.55
   3  0.167  0.333  0.630-   8 2.55   8 2.55   8 2.55   9 2.55   9 2.55   9 2.55
   4  0.833  0.667  0.404-   1 2.55   1 2.55   1 2.55
   5  0.833  0.667  0.337-   1 2.55   1 2.55   1 2.55
   6  0.167  0.333  0.534-   2 2.55   2 2.55   2 2.55
   7  0.167  0.333  0.466-   2 2.55   2 2.55   2 2.55
   8  0.833  0.667  0.663-   3 2.55   3 2.55   3 2.55
   9  0.833  0.667  0.596-   3 2.55   3 2.55   3 2.55

  LATTYP: Found a hexagonal cell.
 ALAT       =     3.3190066245
 C/A-ratio  =    15.0647484797

  Lattice vectors:

 A1 = (   3.3190066245,   0.0000000000,   0.0000000000)
 A2 = (  -1.6595033122,   2.8743440521,   0.0000000000)
 A3 = (   0.0000000000,   0.0000000000,  50.0000000000)

Analysis of symmetry for initial positions (statically):
 Subroutine PRICEL returns:
 Original cell was already a primitive cell.

 Routine SETGRP: Setting up the symmetry group for a
 hexagonal supercell.

 Subroutine GETGRP returns: Found 12 space group operations
 (whereof  4 operations were pure point group operations)
 out of a pool of 24 trial point group operations.

The static configuration has the point symmetry C_2v.
 The point group associated with its full space group is D_3h.

Analysis of symmetry for dynamics (positions and initial velocities):
 Subroutine PRICEL returns:
 Original cell was already a primitive cell.

[...]

The dynamic configuration has the point symmetry C_2v.
 The point group associated with its full space group is D_3h.

 Subroutine INISYM returns: Found 12 space group operations
 (whereof  4 operations are pure point group operations),
 and found     1 'primitive' translations

 KPOINTS: KPOINTS created by Atomic Simulation Env

Automatic generation of k-mesh.
Space group operators:
 irot       det(A)        alpha          n_x          n_y          n_z        tau_x        tau_y        tau_z
    1     1.000000     0.000000     1.000000     0.000000     0.000000     0.000000     0.000000     0.000000
    2    -1.000000   179.999999     0.000000     0.000000     1.000000     0.000000     0.000000     0.000000
    3    -1.000000   180.000000     1.000000     0.000000     0.000000     0.000000     0.000000     0.000000
    4     1.000000   180.000000     0.000000     1.000000     0.000000     0.000000     0.000000     0.000000
    5    -1.000000    60.000000     0.000000     0.000000    -1.000000     0.000000     0.500000     0.000000
    6     1.000000   120.000000     0.000000     0.000000    -1.000000     0.500000     0.500000     0.000000
    7     1.000000   120.000000     0.000000     0.000000     1.000000     0.000000     0.500000     0.000000
    8    -1.000000    60.000000     0.000000     0.000000     1.000000     0.500000     0.500000     0.000000
    9     1.000000   180.000000     0.866025    -0.500000     0.000000     0.500000     0.500000     0.000000
   10    -1.000000   180.000000     0.500000    -0.866025     0.000000    -0.000000     0.500000     0.000000
   11    -1.000000   180.000000    -0.500000    -0.866025     0.000000     0.500000     0.500000     0.000000
   12     1.000000   180.000000     0.866025     0.500000     0.000000    -0.000000     0.500000     0.000000

 Subroutine IBZKPT returns following result:

 Found     37 irreducible k-points:

 Following reciprocal coordinates:
            Coordinates               Weight
  0.000000  0.000000  0.000000      1.000000
  0.055556  0.000000  0.000000      6.000000
  0.111111  0.000000  0.000000      6.000000
  0.166667  0.000000  0.000000      6.000000
  0.222222  0.000000  0.000000      6.000000
  0.277778  0.000000  0.000000      6.000000
  0.333333  0.000000  0.000000      6.000000
  0.388889  0.000000  0.000000      6.000000
  0.444444  0.000000  0.000000      6.000000
  0.500000  0.000000  0.000000      3.000000
  0.055556  0.055556  0.000000      6.000000
  0.111111  0.055556  0.000000     12.000000
  0.166667  0.055556  0.000000     12.000000
  0.222222  0.055556  0.000000     12.000000
  0.277778  0.055556  0.000000     12.000000
  0.333333  0.055556  0.000000     12.000000
  0.388889  0.055556  0.000000     12.000000
  0.444444  0.055556  0.000000     12.000000
  0.111111  0.111111  0.000000      6.000000
  0.166667  0.111111  0.000000     12.000000
  0.222222  0.111111  0.000000     12.000000
  0.277778  0.111111  0.000000     12.000000
  0.333333  0.111111  0.000000     12.000000
  0.388889  0.111111  0.000000     12.000000
  0.444444  0.111111  0.000000      6.000000
  0.166667  0.166667  0.000000      6.000000
  0.222222  0.166667  0.000000     12.000000
  0.277778  0.166667  0.000000     12.000000
  0.333333  0.166667  0.000000     12.000000
  0.388889  0.166667  0.000000     12.000000
  0.222222  0.222222  0.000000      6.000000
  0.277778  0.222222  0.000000     12.000000
  0.333333  0.222222  0.000000     12.000000
  0.388889  0.222222  0.000000      6.000000
  0.277778  0.277778  0.000000      6.000000
  0.333333  0.277778  0.000000     12.000000
  0.333333  0.333333  0.000000      2.000000

 Following cartesian coordinates:
            Coordinates               Weight
  0.000000  0.000000  0.000000      1.000000
  0.016739  0.009664  0.000000      6.000000
  0.033477  0.019328  0.000000      6.000000
  0.050216  0.028992  0.000000      6.000000
  0.066954  0.038656  0.000000      6.000000
  0.083693  0.048320  0.000000      6.000000
  0.100432  0.057984  0.000000      6.000000
  0.117170  0.067648  0.000000      6.000000
  0.133909  0.077312  0.000000      6.000000
  0.150647  0.086976  0.000000      3.000000
  0.016739  0.028992  0.000000      6.000000
  0.033477  0.038656  0.000000     12.000000
  0.050216  0.048320  0.000000     12.000000
  0.066954  0.057984  0.000000     12.000000
  0.083693  0.067648  0.000000     12.000000
  0.100432  0.077312  0.000000     12.000000
  0.117170  0.086976  0.000000     12.000000
  0.133909  0.096640  0.000000     12.000000
  0.033477  0.057984  0.000000      6.000000
  0.050216  0.067648  0.000000     12.000000
  0.066954  0.077312  0.000000     12.000000
  0.083693  0.086976  0.000000     12.000000
  0.100432  0.096640  0.000000     12.000000
  0.117170  0.106304  0.000000     12.000000
  0.133909  0.115968  0.000000      6.000000
  0.050216  0.086976  0.000000      6.000000
  0.066954  0.096640  0.000000     12.000000
  0.083693  0.106304  0.000000     12.000000
  0.100432  0.115968  0.000000     12.000000
  0.117170  0.125633  0.000000     12.000000
  0.066954  0.115968  0.000000      6.000000
  0.083693  0.125633  0.000000     12.000000
  0.100432  0.135297  0.000000     12.000000
  0.117170  0.144961  0.000000      6.000000
  0.083693  0.144961  0.000000      6.000000
  0.100432  0.154625  0.000000     12.000000
  0.100432  0.173953  0.000000      2.000000

 TETIRR: Found    169 inequivalent tetrahedra from     1944

 Subroutine IBZKPT_HF returns following result:

 Found    324 k-points in 1st BZ
 the following    324 k-points will be used (e.g. in the exchange kernel)
 Following reciprocal coordinates:   # in IRBZ
  0.000000  0.000000  0.000000    0.00308642   1 t-inv F
  0.055556  0.000000  0.000000    0.00308642   2 t-inv F
  0.111111  0.000000  0.000000    0.00308642   3 t-inv F
  0.166667  0.000000  0.000000    0.00308642   4 t-inv F
  0.222222  0.000000  0.000000    0.00308642   5 t-inv F
  0.277778  0.000000  0.000000    0.00308642   6 t-inv F
  0.333333  0.000000  0.000000    0.00308642   7 t-inv F
  0.388889  0.000000  0.000000    0.00308642   8 t-inv F
  0.444444  0.000000  0.000000    0.00308642   9 t-inv F
  0.500000  0.000000  0.000000    0.00308642  10 t-inv F
  0.055556  0.055556  0.000000    0.00308642  11 t-inv F
  0.111111  0.055556  0.000000    0.00308642  12 t-inv F
  0.166667  0.055556  0.000000    0.00308642  13 t-inv F
  0.222222  0.055556  0.000000    0.00308642  14 t-inv F
  0.277778  0.055556  0.000000    0.00308642  15 t-inv F
  0.333333  0.055556  0.000000    0.00308642  16 t-inv F
  0.388889  0.055556  0.000000    0.00308642  17 t-inv F
  0.444444  0.055556  0.000000    0.00308642  18 t-inv F
  0.111111  0.111111  0.000000    0.00308642  19 t-inv F
  0.166667  0.111111  0.000000    0.00308642  20 t-inv F
  0.222222  0.111111  0.000000    0.00308642  21 t-inv F
  0.277778  0.111111  0.000000    0.00308642  22 t-inv F
  0.333333  0.111111  0.000000    0.00308642  23 t-inv F
  0.388889  0.111111  0.000000    0.00308642  24 t-inv F
  0.444444  0.111111  0.000000    0.00308642  25 t-inv F
  0.166667  0.166667  0.000000    0.00308642  26 t-inv F
  0.222222  0.166667  0.000000    0.00308642  27 t-inv F
  0.277778  0.166667  0.000000    0.00308642  28 t-inv F
  0.333333  0.166667  0.000000    0.00308642  29 t-inv F
  0.388889  0.166667  0.000000    0.00308642  30 t-inv F
  0.222222  0.222222  0.000000    0.00308642  31 t-inv F
  0.277778  0.222222  0.000000    0.00308642  32 t-inv F
  0.333333  0.222222  0.000000    0.00308642  33 t-inv F
  0.388889  0.222222  0.000000    0.00308642  34 t-inv F
  0.277778  0.277778  0.000000    0.00308642  35 t-inv F
  0.333333  0.277778  0.000000    0.00308642  36 t-inv F
  0.333333  0.333333  0.000000    0.00308642  37 t-inv F
 -0.055556  0.055556  0.000000    0.00308642   2 t-inv F
  0.000000 -0.055556 -0.000000    0.00308642   2 t-inv F
 -0.111111  0.111111  0.000000    0.00308642   3 t-inv F
  0.000000 -0.111111 -0.000000    0.00308642   3 t-inv F
 -0.166667  0.166667  0.000000    0.00308642   4 t-inv F
  0.000000 -0.166667 -0.000000    0.00308642   4 t-inv F
 -0.222222  0.222222  0.000000    0.00308642   5 t-inv F
  0.000000 -0.222222 -0.000000    0.00308642   5 t-inv F
 -0.277778  0.277778  0.000000    0.00308642   6 t-inv F
  0.000000 -0.277778 -0.000000    0.00308642   6 t-inv F
 -0.333333  0.333333  0.000000    0.00308642   7 t-inv F
  0.000000 -0.333333 -0.000000    0.00308642   7 t-inv F
 -0.388889  0.388889  0.000000    0.00308642   8 t-inv F
  0.000000 -0.388889 -0.000000    0.00308642   8 t-inv F
 -0.444444  0.444444  0.000000    0.00308642   9 t-inv F
  0.000000 -0.444444 -0.000000    0.00308642   9 t-inv F
 -0.500000  0.500000  0.000000    0.00308642  10 t-inv F
[...]
   Se        213.931          4.057         25.233          1.009
   Se        209.414          4.042         24.965          0.999
   Se        213.925          4.057         25.232          1.009
   Se        213.925          4.057         25.232          1.009
   Se        209.414          4.042         24.965          0.999
   Se        213.931          4.057         25.233          1.009

  IVDW =  20
  VDW_RADIUS =    50.000 A
  VDW_IDAMPF =  0
  VDW_S6 =     1.000
  VDW_SR =     0.940
  VDW_D =    20.000
  LVDW_EWALD = T
  Edisp (eV):   -2.43853

  FORCE on cell =-STRESS in cart. coord.  units (eV):
  Direction    XX          YY          ZZ          XY          YZ          ZX
  Alpha Z   130.51049   130.51049   130.51049
  Ewald   92941.47784 92941.47784-96962.42902    -0.00000    -0.00000     0.00000
  Hartree 94374.13923 94374.13923-93644.66462    -0.00000    -0.00000    -0.00000
  E(xc)    -381.74260  -381.74260  -382.36416     0.00001     0.00000     0.00000
  Local  ************************189291.85264    -0.00011    -0.00000     0.00000
  n-local   -26.68339   -25.76015   -21.12882     4.48878     0.00000     0.00000
  augment  -126.63229  -126.63219  -127.87726     0.00009     0.00000    -0.00000
  Kinetic  1699.73102  1710.07529  1712.62345   -42.80065    -0.00000    -0.00000
  Fock        0.00000     0.00000     0.00000     0.00000     0.00000     0.00000
  vdW        -2.52077    -2.52077    -2.48516     0.00000    -0.00000     0.00000
  Total      -7.00220    -7.00220    -5.96246    -0.00000    -0.00000     0.00000
  in kB     -23.51950   -23.51950   -20.02716    -0.00000    -0.00000     0.00000

 VOLUME and BASIS-vectors are now :
  energy-cutoff  :      317.13
  volume of cell :      477.00
      direct lattice vectors                 reciprocal lattice vectors
     3.319006624  0.000000000  0.000000000     0.301294970  0.173952732  0.000000000
    -1.659503312  2.874344052  0.000000000     0.000000000  0.347905464  0.000000000
     0.000000000  0.000000000 50.000000000     0.000000000  0.000000000  0.020000000

  length of vectors
     3.319006624  3.319006624 50.000000000     0.347905464  0.347905464  0.020000000

 FORCES acting on ions
    electron-ion (+dipol)            ewald-force                    non-local-force                 convergence-correction
   0.159E-06 0.146E-06 0.422E+04   0.103E-10 -.605E-11 -.422E+04   -.542E-18 -.108E-17 0.144E-01   0.118E-09 -.681E-10 0.418E-05
   -.152E-06 0.879E-07 0.880E-10   -.104E-10 0.586E-11 0.114E-12   0.602E-17 0.260E-17 0.000E+00   -.118E-09 0.680E-10 0.108E-11
   -.467E-07 -.210E-06 -.422E+04   0.103E-10 -.605E-11 0.422E+04   -.152E-17 -.651E-18 -.144E-01   0.118E-09 -.680E-10 -.418E-05
   -.746E-07 0.623E-07 0.102E+04   -.530E-11 0.306E-11 -.102E+04   0.867E-17 -.781E-17 -.262E+01   -.257E-11 0.149E-11 0.576E-05
   0.129E-06 0.302E-06 0.259E+04   -.512E-11 0.303E-11 -.259E+04   0.347E-17 -.347E-17 0.259E+01   -.327E-11 0.190E-11 -.330E-05
   -.586E-08 -.103E-06 -.785E+03   0.530E-11 -.303E-11 0.788E+03   -.260E-17 -.607E-17 -.261E+01   0.205E-11 -.122E-11 0.361E-05
   0.866E-07 0.567E-07 0.785E+03   0.530E-11 -.302E-11 -.788E+03   -.390E-17 -.173E-17 0.261E+01   0.208E-11 -.119E-11 -.361E-05
   -.197E-06 -.263E-06 -.259E+04   -.512E-11 0.303E-11 0.259E+04   0.260E-17 0.000E+00 -.259E+01   -.328E-11 0.187E-11 0.330E-05
   -.912E-07 0.335E-07 -.102E+04   -.529E-11 0.306E-11 0.102E+04   0.694E-17 -.173E-17 0.262E+01   -.258E-11 0.150E-11 -.576E-05
   -.193E-06 0.111E-06 0.198E-09   0.946E-13 -.122E-12 0.000E+00   0.191E-16 -.199E-16 -.888E-15   0.110E-09 -.638E-10 0.590E-11

 POSITION                                       TOTAL-FORCE (eV/Angst)
     -0.00000      0.95811     18.51000         0.000000     -0.000000      0.043316
      1.65950      1.91623     25.00000        -0.000000      0.000000      0.000000
     -0.00000      0.95811     31.49000         0.000000     -0.000000     -0.043316
      1.65950      1.91623     20.18928         0.000000     -0.000000     -0.102843
      1.65950      1.91623     16.83072        -0.000000      0.000000      0.054996
     -0.00000      0.95811     26.67928         0.000000      0.000000     -0.116753
     -0.00000      0.95811     23.32072         0.000000      0.000000      0.116753
      1.65950      1.91623     33.16928        -0.000000      0.000000     -0.054996
      1.65950      1.91623     29.81072        -0.000000      0.000000      0.102843
    total drift:                               -0.000000      0.000000      0.000000

  FREE ENERGIE OF THE ION-ELECTRON SYSTEM (eV)
  free  energy   TOTEN  =       -73.38804922 eV

  energy  without entropy=      -73.38804922  energy(sigma->0) =      -73.38804922

 Linear response reoptimize wavefunctions
 Linear response G [H, r] |phi>, progress :
  Direction:   1

[...]

  free energy    TOTEN  =      -367.02180827 eV

[...]

 Linear response G [H, r] |phi>, progress :
  Direction:   2

[...]

 Linear response G [H, r] |phi>, progress :
  Direction:   3

[...]

  free energy    TOTEN  =      -361.42329806 eV

[...]

 Linear response to external field (no local field effect), progress :
  Direction:   1
  LATTYP: Found a hexagonal cell.
 ALAT       =     3.3190066245
 C/A-ratio  =    15.0647484797

[...]

The dynamic configuration has the point symmetry C_1h.

[...]

 Free energy of the ion-electron system (eV)
  -Hartree energ DENC   =         0.00000000
  -V(xc)+E(xc)   XCENC  =         0.00000000
  PAW double counting   =         0.00000000        0.00000000
  entropy T*S    EENTRO =         0.00000000
  eigenvalues    EBANDS =        -6.34618951
  free energy    TOTEN  =        -6.34618951 eV

  energy without entropy =       -6.34618951

[...]

 change of polarisation eV/A/(eV/A) component  1 :    15.682    -1.618     0.000
 dielectric tensor                  component  1 :     6.949    -0.614     0.000

[...]

The dynamic configuration has the point symmetry C_2v.

[...]

 Linear response to external field (no local field effect), progress :
  Direction:   3
  LATTYP: Found a hexagonal cell.
 ALAT       =     3.3190066245
 C/A-ratio  =    15.0647484797

[...]

The dynamic configuration has the point symmetry C_1h.
 The point group associated with its full space group is C_3v.

[...]

 HEAD OF MICROSCOPIC STATIC DIELECTRIC TENSOR (INDEPENDENT PARTICLE, excluding Hartree and local field effects)
           6.838534    -0.000000     0.000000
           0.000000     6.838534     0.000000
          -0.000000    -0.000000     4.531320

 Linear response to external field, progress :
  Direction:   1
  LATTYP: Found a hexagonal cell.
 ALAT       =     3.3190066245
 C/A-ratio  =    15.0647484797

[...]

The dynamic configuration has the point symmetry C_1h.

[...]

  Parameters of vdW forcefield:
            C6ts              R0ts           ALPHAts        RELVOL
            (au)              (au)            (au)
   W         896.457          4.120         73.045          1.028
   W         902.595          4.125         73.295          1.032
   W         896.457          4.120         73.045          1.028
   Se        213.931          4.057         25.233          1.009
   Se        209.414          4.042         24.965          0.999
   Se        213.925          4.057         25.232          1.009
   Se        213.925          4.057         25.232          1.009
   Se        209.414          4.042         24.965          0.999
   Se        213.931          4.057         25.233          1.009
  Edisp (eV):   -2.43853

[...]

 PIEZOELECTRIC TENSOR FIELD DIRECTION 1  (e Angst)
    -0.00809 -0.97516  0.00000           ( -0.00001  0.07409  0.00000)
    -0.97518  0.00663  0.00000           (  0.07409  0.00006  0.00000)
     0.00000  0.00000 -0.00038           (  0.00000  0.00000  0.00002)

 PIEZOELECTRIC TENSOR FIELD DIRECTION 1  (C/m^2)
    -0.00027 -0.03275  0.00000
    -0.03275  0.00022  0.00000
     0.00000  0.00000 -0.00001

      POSITION         DIRECTION 1           BORN EFFECTIVE CHARGE    (rigid.aug.   ionic)
     -0.00000      0.95811     18.51000    -1.12580 -0.00069 -0.00000 (  1.95585 14.00000)
      1.65950      1.91623     25.00000    -1.13415  0.00073  0.00000 (  1.95582 14.00000)
     -0.00000      0.95811     31.49000    -1.12580 -0.00069  0.00000 (  1.95585 14.00000)
      1.65950      1.91623     20.18928     0.58429 -0.00032 -0.00024 (  1.12261  6.00000)
      1.65950      1.91623     16.83072     0.59220 -0.00034  0.00015 (  1.12106  6.00000)
     -0.00000      0.95811     26.67928     0.59213  0.00033 -0.00024 (  1.12265  6.00000)
     -0.00000      0.95811     23.32072     0.59213  0.00033  0.00024 (  1.12265  6.00000)
      1.65950      1.91623     33.16928     0.59220 -0.00034 -0.00015 (  1.12106  6.00000)
      1.65950      1.91623     29.81072     0.58429 -0.00032  0.00024 (  1.12261  6.00000)
    total drift (improves with k-points):   0.15150 -0.00132  0.00000

[...]

The dynamic configuration has the point symmetry C_2v.

[...]

 Linear response to external field, progress :
  Direction:   3
  LATTYP: Found a hexagonal cell.
 ALAT       =     3.3190066245
 C/A-ratio  =    15.0647484797

[...]

The dynamic configuration has the point symmetry C_1h.
 The point group associated with its full space group is C_3v.

[...]

----------------------------------------- Iteration    3(  24)  ---------------------------------------

 Broyden mixing:
  rms(total) = 0.61575E-06    rms(broyden)= 0.61568E-06
  rms(prec ) = 0.66408E-06
  weight for this iteration     100.00

 eigenvalues of (default mixing * dielectric matrix)
  average eigenvalue GAMMA=   2.3983
  8.3921  8.3921  5.6942  4.3685  3.0791  3.0791  2.3162  2.3162  1.9407  1.6334
  1.6334  1.1839  1.0266  1.0266  0.9284  0.9284  0.9341  0.7981  0.8760  0.8760
  0.6679  0.6723

 Free energy of the ion-electron system (eV)
  -Hartree energ DENC   =        -0.54157576
  -V(xc)+E(xc)   XCENC  =         0.00879305
  PAW double counting   =         0.02086847       -0.02071558
  entropy T*S    EENTRO =         0.00000000
  eigenvalues    EBANDS =        -0.14607434
  free energy    TOTEN  =        -0.67870416 eV

  energy without entropy =       -0.67870416

------------------------ aborting loop because EDIFF is reached ----------------------------------------

 change of polarisation eV/A/(eV/A) component  3 :     0.000    -0.000     1.335
 dielectric tensor                  component  3 :     0.000    -0.000     1.506

[...]

  Hirshfeld charges:
            ion         q(e)
      1     W           0.285
      2     W           0.284
      3     W           0.285
      4     Se         -0.142
      5     Se         -0.143
      6     Se         -0.142
      7     Se         -0.142
      8     Se         -0.143
      9     Se         -0.142

  Tkatchenko/Scheffler method for vdW energy calculation

  Parameters of vdW forcefield:
            C6ts              R0ts           ALPHAts        RELVOL
            (au)              (au)            (au)
   W         896.458          4.120         73.045          1.028
   W         902.595          4.125         73.295          1.032
   W         896.457          4.120         73.045          1.028
   Se        213.930          4.057         25.233          1.009
   Se        209.414          4.042         24.965          0.999
   Se        213.925          4.057         25.232          1.009
   Se        213.926          4.057         25.233          1.009
   Se        209.413          4.042         24.965          0.999
   Se        213.931          4.057         25.233          1.009
  Edisp (eV):   -2.43853

 PIEZOELECTRIC TENSOR FIELD DIRECTION 3  (e Angst)
    -0.00003  0.00000 -0.00000           (  0.00000  0.00000  0.00000)
    -0.00000 -0.00003 -0.00000           ( -0.00000  0.00000  0.00000)
     0.00000  0.00000  0.00005           (  0.00000  0.00000  0.00000)

 PIEZOELECTRIC TENSOR FIELD DIRECTION 3  (C/m^2)
    -0.00000  0.00000 -0.00000
    -0.00000 -0.00000 -0.00000
     0.00000  0.00000  0.00000

      POSITION         DIRECTION 3           BORN EFFECTIVE CHARGE    (rigid.aug.   ionic)
     -0.00000      0.95811     18.51000    -0.00000  0.00000-15.50942 (  1.95585 14.00000)
      1.65950      1.91623     25.00000     0.00000 -0.00000 -0.65742 (  1.95582 14.00000)
     -0.00000      0.95811     31.49000     0.00000  0.00000-15.50942 (  1.95585 14.00000)
      1.65950      1.91623     20.18928     0.00000 -0.00000 -0.01816 (  1.12261  6.00000)
      1.65950      1.91623     16.83072    -0.00000  0.00000  0.52614 (  1.12106  6.00000)
     -0.00000      0.95811     26.67928     0.00000 -0.00000  0.13238 (  1.12265  6.00000)
     -0.00000      0.95811     23.32072     0.00000  0.00000  0.13238 (  1.12265  6.00000)
      1.65950      1.91623     33.16928     0.00000 -0.00000  0.52614 (  1.12106  6.00000)
      1.65950      1.91623     29.81072    -0.00000 -0.00000 -0.01816 (  1.12261  6.00000)
    total drift (improves with k-points):   0.00000 -0.00000-30.39553

[...]

 MACROSCOPIC STATIC DIELECTRIC TENSOR (including local field effects in DFT)
           6.586868     0.000000    -0.000000
          -0.000000     6.586868     0.000000
           0.000000    -0.000000     1.506299

  LATTYP: Found a hexagonal cell.
 ALAT       =     3.3190066245
 C/A-ratio  =    15.0647484797

  Lattice vectors:

 A1 = (   3.3190066245,   0.0000000000,   0.0000000000)
 A2 = (  -1.6595033122,   2.8743440521,   0.0000000000)
 A3 = (   0.0000000000,   0.0000000000,  50.0000000000)

Analysis of symmetry for initial positions (statically):
 Subroutine PRICEL returns:
 Original cell was already a primitive cell.

[...]

The static configuration has the point symmetry C_2v.
 The point group associated with its full space group is D_3h.

Analysis of symmetry for dynamics (positions and initial velocities):
 Subroutine PRICEL returns:
 Original cell was already a primitive cell.

 Routine SETGRP: Setting up the symmetry group for a
 hexagonal supercell.

 Subroutine GETGRP returns: Found 12 space group operations
 (whereof  4 operations were pure point group operations)
 out of a pool of 24 trial point group operations.

The dynamic configuration has the point symmetry C_2v.
 The point group associated with its full space group is D_3h.

 Subroutine INISYM returns: Found 12 space group operations
 (whereof  4 operations are pure point group operations),
 and found     1 'primitive' translations

 MACROSCOPIC STATIC DIELECTRIC TENSOR (including local field effects in DFT)
           6.586868     0.000000    -0.000000
          -0.000000     6.586868     0.000000
           0.000000    -0.000000     1.506299

 PIEZOELECTRIC TENSOR  for field in x, y, z        (e  Angst)
          XX          YY          ZZ          XY          YZ          ZX
  x    -0.00809     0.00663    -0.00038    -0.97518     0.00000     0.00000
  y    -0.98311     0.98638     0.00149     0.00000     0.00000     0.00000
  z    -0.00003    -0.00003     0.00005    -0.00000     0.00000    -0.00000

 PIEZOELECTRIC TENSOR  for field in x, y, z        (C/m^2)
          XX          YY          ZZ          XY          YZ          ZX
  x     0.00000     0.00000    -0.00000    -0.03292     0.00000     0.00000
  y    -0.03292     0.03292    -0.00000     0.00000     0.00000     0.00000
  z     0.00000     0.00000     0.00000    -0.00000     0.00000     0.00000

 BORN EFFECTIVE CHARGES (in e, cummulative output)
 ion    1
    1    -1.12580    -0.00069    -0.00000
    2     0.00000    -1.12654    -0.00002
    3    -0.00000     0.00000   -15.50942
 ion    2
    1    -1.13415     0.00073     0.00000
    2     0.00000    -1.13349     0.00000
    3     0.00000    -0.00000    -0.65742
 ion    3
    1    -1.12580    -0.00069     0.00000
    2     0.00000    -1.12654     0.00002
    3     0.00000     0.00000   -15.50942
 ion    4
    1     0.58429    -0.00032    -0.00024
    2    -0.00000     0.58468     0.00062
    3     0.00000    -0.00000    -0.01816
 ion    5
    1     0.59220    -0.00034     0.00015
    2    -0.00000     0.59254    -0.00041
    3    -0.00000     0.00000     0.52614
 ion    6
    1     0.59213     0.00033    -0.00024
    2    -0.00000     0.59175     0.00061
    3     0.00000    -0.00000     0.13238
 ion    7
    1     0.59213     0.00033     0.00024
    2    -0.00000     0.59175    -0.00061
    3     0.00000     0.00000     0.13238
 ion    8
    1     0.59220    -0.00034    -0.00015
    2    -0.00000     0.59254     0.00041
    3     0.00000    -0.00000     0.52614
 ion    9
    1     0.58429    -0.00032     0.00024
    2    -0.00000     0.58468    -0.00062
    3    -0.00000    -0.00000    -0.01816

 writing wavefunctions
 BZINTS: Fermi energy: -0.308491; 78.000000 electrons
         Band energy:***********;  BLOECHL correction:  0.000000