 vasp.5.4.1 24Jun15 (build Apr 13 2016 13:07:19) complex

 executed on           IFC91_ompi date 2019.09.13  22:15:23

 INCAR:
 POTCAR:    PAW_PBE W_sv_GW 23Mar2010
 POTCAR:    PAW_PBE S_GW 19Mar2012

 POTCAR:    PAW_PBE W_sv_GW 23Mar2010
   VRHFIN =W: 5p6s5d

   TITEL  = PAW_PBE W_sv_GW 23Mar2010
   POMASS =  183.850; ZVAL   =   14.000    mass and valenz
   ENMAX  =  317.132; ENMIN  =  237.849 eV

 POTCAR:    PAW_PBE S_GW 19Mar2012
   VRHFIN =S : s2p4

   TITEL  = PAW_PBE S_GW 19Mar2012
   POMASS =   32.066; ZVAL   =    6.000    mass and valenz
   ENMAX  =  258.689; ENMIN  =  194.016 eV

  PAW_PBE W_sv_GW 23Mar2010             :
  PAW_PBE S_GW 19Mar2012                :

 POSCAR:  W  S
  positions in cartesian coordinates
 exchange correlation table for  LEXCH =        8
   RHO(1)=    0.500       N(1)  =     2000
   RHO(2)=  100.500       N(2)  =     4000

 ion  position               nearest neighbor table
   1  0.167  0.333  0.500-   2 2.42   3 2.42   2 2.42   3 2.42   2 2.42   3 2.42
   2  0.833  0.667  0.531-   1 2.42   1 2.42   1 2.42
   3  0.833  0.667  0.469-   1 2.42   1 2.42   1 2.42

  LATTYP: Found a hexagonal cell.
 ALAT       =     3.1859459497
 C/A-ratio  =    15.6939260082

  Lattice vectors:

 A1 = (   3.1859459497,   0.0000000000,   0.0000000000)
 A2 = (  -1.5929729748,   2.7591101275,   0.0000000000)
 A3 = (   0.0000000000,   0.0000000000,  50.0000000000)

Analysis of symmetry for initial positions (statically):
 Subroutine PRICEL returns:
 Original cell was already a primitive cell.

 Routine SETGRP: Setting up the symmetry group for a
 hexagonal supercell.

 Subroutine GETGRP returns: Found 12 space group operations
 (whereof  4 operations were pure point group operations)
 out of a pool of 24 trial point group operations.

The static configuration has the point symmetry C_2v.
 The point group associated with its full space group is D_3h.

Analysis of symmetry for dynamics (positions and initial velocities):
 Subroutine PRICEL returns:
 Original cell was already a primitive cell.

[...]

The dynamic configuration has the point symmetry C_2v.
 The point group associated with its full space group is D_3h.

 Subroutine INISYM returns: Found 12 space group operations
 (whereof  4 operations are pure point group operations),
 and found     1 'primitive' translations

 KPOINTS: KPOINTS created by Atomic Simulation Env

Automatic generation of k-mesh.
Space group operators:
 irot       det(A)        alpha          n_x          n_y          n_z        tau_x        tau_y        tau_z
    1     1.000000     0.000000     1.000000     0.000000     0.000000     0.000000     0.000000     0.000000
    2    -1.000000   180.000000     0.000000     0.000000     1.000000     0.000000     0.000000     0.000000
    3    -1.000000   180.000000     1.000000     0.000000     0.000000     0.000000     0.000000     0.000000
    4     1.000000   180.000000     0.000000     1.000000     0.000000     0.000000     0.000000     0.000000
    5    -1.000000    60.000000     0.000000     0.000000    -1.000000     0.000000     0.500000     0.000000
    6     1.000000   120.000000     0.000000     0.000000    -1.000000     0.500000     0.500000     0.000000
    7     1.000000   120.000000     0.000000     0.000000     1.000000     0.000000     0.500000     0.000000
    8    -1.000000    60.000000     0.000000     0.000000     1.000000     0.500000     0.500000     0.000000
    9     1.000000   180.000000     0.866025    -0.500000     0.000000     0.500000     0.500000     0.000000
   10    -1.000000   180.000000     0.500000    -0.866025     0.000000     0.000000     0.500000     0.000000
   11    -1.000000   180.000000    -0.500000    -0.866025     0.000000     0.500000     0.500000     0.000000
   12     1.000000   180.000000     0.866025     0.500000     0.000000     0.000000     0.500000     0.000000

 Subroutine IBZKPT returns following result:

 Found     37 irreducible k-points:

 Following reciprocal coordinates:
            Coordinates               Weight
  0.000000  0.000000  0.000000      1.000000
  0.055556  0.000000  0.000000      6.000000
  0.111111  0.000000  0.000000      6.000000
  0.166667  0.000000  0.000000      6.000000
  0.222222  0.000000  0.000000      6.000000
  0.277778  0.000000  0.000000      6.000000
  0.333333  0.000000  0.000000      6.000000
  0.388889  0.000000  0.000000      6.000000
  0.444444  0.000000  0.000000      6.000000
  0.500000  0.000000  0.000000      3.000000
  0.055556  0.055556  0.000000      6.000000
  0.111111  0.055556  0.000000     12.000000
  0.166667  0.055556  0.000000     12.000000
  0.222222  0.055556  0.000000     12.000000
  0.277778  0.055556  0.000000     12.000000
  0.333333  0.055556  0.000000     12.000000
  0.388889  0.055556  0.000000     12.000000
  0.444444  0.055556  0.000000     12.000000
  0.111111  0.111111  0.000000      6.000000
  0.166667  0.111111  0.000000     12.000000
  0.222222  0.111111  0.000000     12.000000
  0.277778  0.111111  0.000000     12.000000
  0.333333  0.111111  0.000000     12.000000
  0.388889  0.111111  0.000000     12.000000
  0.444444  0.111111  0.000000      6.000000
  0.166667  0.166667  0.000000      6.000000
  0.222222  0.166667  0.000000     12.000000
  0.277778  0.166667  0.000000     12.000000
  0.333333  0.166667  0.000000     12.000000
  0.388889  0.166667  0.000000     12.000000
  0.222222  0.222222  0.000000      6.000000
  0.277778  0.222222  0.000000     12.000000
  0.333333  0.222222  0.000000     12.000000
  0.388889  0.222222  0.000000      6.000000
  0.277778  0.277778  0.000000      6.000000
  0.333333  0.277778  0.000000     12.000000
  0.333333  0.333333  0.000000      2.000000

 Following cartesian coordinates:
            Coordinates               Weight
  0.000000  0.000000  0.000000      1.000000
  0.017438  0.010068  0.000000      6.000000
  0.034875  0.020135  0.000000      6.000000
  0.052313  0.030203  0.000000      6.000000
  0.069751  0.040271  0.000000      6.000000
  0.087188  0.050338  0.000000      6.000000
  0.104626  0.060406  0.000000      6.000000
  0.122064  0.070474  0.000000      6.000000
  0.139502  0.080541  0.000000      6.000000
  0.156939  0.090609  0.000000      3.000000
  0.017438  0.030203  0.000000      6.000000
  0.034875  0.040271  0.000000     12.000000
  0.052313  0.050338  0.000000     12.000000
  0.069751  0.060406  0.000000     12.000000
  0.087188  0.070474  0.000000     12.000000
  0.104626  0.080541  0.000000     12.000000
  0.122064  0.090609  0.000000     12.000000
  0.139502  0.100677  0.000000     12.000000
  0.034875  0.060406  0.000000      6.000000
  0.052313  0.070474  0.000000     12.000000
  0.069751  0.080541  0.000000     12.000000
  0.087188  0.090609  0.000000     12.000000
  0.104626  0.100677  0.000000     12.000000
  0.122064  0.110744  0.000000     12.000000
  0.139502  0.120812  0.000000      6.000000
  0.052313  0.090609  0.000000      6.000000
  0.069751  0.100677  0.000000     12.000000
  0.087188  0.110744  0.000000     12.000000
  0.104626  0.120812  0.000000     12.000000
  0.122064  0.130880  0.000000     12.000000
  0.069751  0.120812  0.000000      6.000000
  0.087188  0.130880  0.000000     12.000000
  0.104626  0.140947  0.000000     12.000000
  0.122064  0.151015  0.000000      6.000000
  0.087188  0.151015  0.000000      6.000000
  0.104626  0.161083  0.000000     12.000000
  0.104626  0.181218  0.000000      2.000000

 TETIRR: Found    169 inequivalent tetrahedra from     1944

 Subroutine IBZKPT_HF returns following result:

 Found    324 k-points in 1st BZ
 the following    324 k-points will be used (e.g. in the exchange kernel)
 Following reciprocal coordinates:   # in IRBZ
  0.000000  0.000000  0.000000    0.00308642   1 t-inv F
  0.055556  0.000000  0.000000    0.00308642   2 t-inv F
  0.111111  0.000000  0.000000    0.00308642   3 t-inv F
  0.166667  0.000000  0.000000    0.00308642   4 t-inv F
  0.222222  0.000000  0.000000    0.00308642   5 t-inv F
  0.277778  0.000000  0.000000    0.00308642   6 t-inv F
  0.333333  0.000000  0.000000    0.00308642   7 t-inv F
  0.388889  0.000000  0.000000    0.00308642   8 t-inv F
  0.444444  0.000000  0.000000    0.00308642   9 t-inv F
  0.500000  0.000000  0.000000    0.00308642  10 t-inv F
  0.055556  0.055556  0.000000    0.00308642  11 t-inv F
  0.111111  0.055556  0.000000    0.00308642  12 t-inv F
  0.166667  0.055556  0.000000    0.00308642  13 t-inv F
  0.222222  0.055556  0.000000    0.00308642  14 t-inv F
  0.277778  0.055556  0.000000    0.00308642  15 t-inv F
  0.333333  0.055556  0.000000    0.00308642  16 t-inv F
  0.388889  0.055556  0.000000    0.00308642  17 t-inv F
  0.444444  0.055556  0.000000    0.00308642  18 t-inv F
  0.111111  0.111111  0.000000    0.00308642  19 t-inv F
  0.166667  0.111111  0.000000    0.00308642  20 t-inv F
  0.222222  0.111111  0.000000    0.00308642  21 t-inv F
  0.277778  0.111111  0.000000    0.00308642  22 t-inv F
  0.333333  0.111111  0.000000    0.00308642  23 t-inv F
  0.388889  0.111111  0.000000    0.00308642  24 t-inv F
  0.444444  0.111111  0.000000    0.00308642  25 t-inv F
  0.166667  0.166667  0.000000    0.00308642  26 t-inv F
  0.222222  0.166667  0.000000    0.00308642  27 t-inv F
  0.277778  0.166667  0.000000    0.00308642  28 t-inv F
  0.333333  0.166667  0.000000    0.00308642  29 t-inv F
  0.388889  0.166667  0.000000    0.00308642  30 t-inv F
  0.222222  0.222222  0.000000    0.00308642  31 t-inv F
  0.277778  0.222222  0.000000    0.00308642  32 t-inv F
  0.333333  0.222222  0.000000    0.00308642  33 t-inv F
  0.388889  0.222222  0.000000    0.00308642  34 t-inv F
  0.277778  0.277778  0.000000    0.00308642  35 t-inv F
  0.333333  0.277778  0.000000    0.00308642  36 t-inv F
  0.333333  0.333333  0.000000    0.00308642  37 t-inv F
 -0.055556  0.055556  0.000000    0.00308642   2 t-inv F
  0.000000 -0.055556 -0.000000    0.00308642   2 t-inv F
 -0.111111  0.111111  0.000000    0.00308642   3 t-inv F
  0.000000 -0.111111 -0.000000    0.00308642   3 t-inv F
 -0.166667  0.166667  0.000000    0.00308642   4 t-inv F
  0.000000 -0.166667 -0.000000    0.00308642   4 t-inv F
 -0.222222  0.222222  0.000000    0.00308642   5 t-inv F
  0.000000 -0.222222 -0.000000    0.00308642   5 t-inv F
 -0.277778  0.277778  0.000000    0.00308642   6 t-inv F
  0.000000 -0.277778 -0.000000    0.00308642   6 t-inv F
 -0.333333  0.333333  0.000000    0.00308642   7 t-inv F
  0.000000 -0.333333 -0.000000    0.00308642   7 t-inv F
 -0.388889  0.388889  0.000000    0.00308642   8 t-inv F
  0.000000 -0.388889 -0.000000    0.00308642   8 t-inv F
 -0.444444  0.444444  0.000000    0.00308642   9 t-inv F
  0.000000 -0.444444 -0.000000    0.00308642   9 t-inv F
 -0.500000  0.500000  0.000000    0.00308642  10 t-inv F
  0.000000 -0.500000 -0.000000    0.00308642  10 t-inv F
 -0.055556  0.111111  0.000000    0.00308642  11 t-inv F
  0.055556 -0.111111 -0.000000    0.00308642  11 t-inv F
 -0.111111  0.055556  0.000000    0.00308642  11 t-inv F
 -0.055556 -0.055556 -0.000000    0.00308642  11 t-inv F
  0.111111 -0.055556  0.000000    0.00308642  11 t-inv F
[...]
  0.500000 -0.277778 -0.000000    0.00308642  32 t-inv T
[...]
 augmentation part       -3.2821811 magnetization

[...]

 BZINTS: Fermi energy: -3.991430; 26.000000 electrons
         Band energy:-582.130920;  BLOECHL correction:  0.000000

 eigenvalue-minimisations  :  2856
 total energy-change (2. order) :-0.5310994E-08  ( 0.2044011E-11)
 number of electron      26.0000006 magnetization
 augmentation part       -3.2821811 magnetization

 Free energy of the ion-electron system (eV)
  alpha Z        PSCENC =        11.69473195
  Ewald energy   TEWEN  =     22654.57366406
  -Hartree energ DENC   =    -24641.32618357
  -exchange      EXHF   =         0.00000000
  -V(xc)+E(xc)   XCENC  =        -1.87059847
  PAW double counting   =      3288.71668837    -3172.64589089
  entropy T*S    EENTRO =         0.00000000
  eigenvalues    EBANDS =      -582.13092034
  atomic energy  EATOM  =      2417.29385024
  Solvation  Ediel_sol  =         0.00000000
  free energy    TOTEN  =       -25.69465865 eV

  energy without entropy =      -25.69465865  energy(sigma->0) =      -25.69465865

 average (electrostatic) potential at core
  the test charge radii are     0.9757  1.0339
  (the norm of the test charge is              1.0000)
       1-101.0243       2 -98.8988       3 -98.8988

 E-fermi :  -3.9914     XC(G=0):  -1.6231     alpha+bet : -1.6198

 k-point     1 :       0.0000    0.0000    0.0000
  band No.  band energies     occupation
      1     -78.2131      2.00000
      2     -42.4329      2.00000
      3     -42.2856      2.00000
      4     -42.2856      2.00000
      5     -18.8836      2.00000
      6     -17.2654      2.00000
      7     -10.4669      2.00000
      8      -6.9824      2.00000
      9      -6.9824      2.00000
     10      -6.2594      2.00000
     11      -5.7595      2.00000
     12      -5.7595      2.00000
     13      -4.1991      2.00000
     14      -1.2807      0.00000
     15      -1.2807      0.00000
     16      -1.1365      0.00000
     17      -1.1365      0.00000
     18       0.8109      0.00000
     19       1.1866      0.00000
     20       1.4265      0.00000
     21       1.5207      0.00000
     22       1.5878      0.00000
     23       1.7386      0.00000
     24       1.8970      0.00000
     25       2.1256      0.00000
     26       2.3736      0.00000
     27       2.6639      0.00000
     28       3.0013      0.00000

[...]

 k-point    37 :       0.3333    0.3333    0.0000
  band No.  band energies     occupation
      1     -78.1910      2.00000
      2     -42.5220      2.00000
      3     -42.4899      2.00000
      4     -42.3661      2.00000
      5     -16.4713      2.00000
      6     -16.3578      2.00000
      7      -9.8753      2.00000
      8      -9.4801      2.00000
      9      -8.6135      2.00000
     10      -8.0242      2.00000
     11      -7.3851      2.00000
     12      -6.5185      2.00000
     13      -4.1524      2.00000
     14      -2.3348      0.00000
     15      -0.8243      0.00000
     16      -0.1483      0.00000
     17       1.3315      0.00000
     18       2.4578      0.00000
     19       2.8985      0.00000
     20       5.1384      0.00000
     21       6.1343      0.00000
     22       6.9492      0.00000
     23       7.1838      0.00000
     24       7.2634      0.00000
     25       7.3171      0.00000
     26       7.4079      0.00000
     27       8.0627      0.00000
     28       8.0661      0.00000

 soft charge-density along one line, spin component           1
         0         1         2         3         4         5         6         7         8         9
 total charge-density along one line

------------------------ aborting loop because EDIFF is reached ----------------------------------------

  Hirshfeld charges:
            ion         q(e)
      1     W           0.353
      2     S          -0.177
      3     S          -0.177

  Atomic reference data used in the T-S method for vdW correction:
            C6at              R0at           ALPHAat      REFSTATE
            (au)              (au)            (au)
   W         847.930          4.082         71.041         0
   S         134.000          3.855         19.600         0

  Tkatchenko/Scheffler method for vdW energy calculation

  Parameters of vdW forcefield:
            C6ts              R0ts           ALPHAts        RELVOL
            (au)              (au)            (au)
   W         865.216          4.096         71.761          1.010
   S         132.585          3.848         19.496          0.995
   S         132.585          3.848         19.496          0.995

  IVDW =  20
  VDW_RADIUS =    50.000 A
  VDW_IDAMPF =  0
  VDW_S6 =     1.000
  VDW_SR =     0.940
  VDW_D =    20.000
  LVDW_EWALD = T
  Edisp (eV):   -0.56142

  FORCE on cell =-STRESS in cart. coord.  units (eV):
  Direction    XX          YY          ZZ          XY          YZ          ZX
  Alpha Z    11.69473    11.69473    11.69473
  Ewald   24057.55889 24057.55889-25460.54478    -0.00000    -0.00000     0.00000
  Hartree 24411.64681 24411.64681-24181.96733    -0.00000    -0.00000    -0.00000
  E(xc)    -126.23009  -126.23009  -126.50312     0.00000    -0.00000     0.00000
  Local  -48932.85988-48932.85988 49172.46556    -0.00001     0.00000    -0.00000
  n-local    65.49045    66.44833    67.90986     0.18141     0.00000    -0.00000
  augment   -73.01541   -73.01541   -73.68219     0.00001    -0.00000     0.00000
  Kinetic   582.05035   585.16141   588.90005   -15.54730    -0.00000    -0.00000
  Fock        0.00000     0.00000     0.00000     0.00000     0.00000     0.00000
  vdW        -0.59095    -0.59095    -0.14982     0.00000     0.00000     0.00000
  Total      -2.22063    -2.22063    -1.87703     0.00000     0.00000    -0.00000
  in kB      -8.09486    -8.09486    -6.84235     0.00000     0.00000    -0.00000

 VOLUME and BASIS-vectors are now :
  energy-cutoff  :      317.13
  volume of cell :      439.52
      direct lattice vectors                 reciprocal lattice vectors
     3.185945950  0.000000000  0.000000000     0.313878520  0.181217848  0.000000000
    -1.592972975  2.759110127  0.000000000     0.000000000  0.362435696  0.000000000
     0.000000000  0.000000000 50.000000000     0.000000000  0.000000000  0.020000000

  length of vectors
     3.185945950  3.185945950 50.000000000     0.362435696  0.362435696  0.020000000

 FORCES acting on ions
    electron-ion (+dipol)            ewald-force                    non-local-force                 convergence-correction
   -.237E-06 0.137E-06 0.132E-10   0.120E-10 -.691E-11 0.000E+00   -.173E-16 0.694E-17 0.000E+00   -.330E-10 0.191E-10 -.135E-11
   -.803E-07 0.345E-08 -.106E+04   -.597E-11 0.343E-11 0.107E+04   -.347E-17 -.312E-16 -.806E+01   -.309E-10 0.178E-10 -.497E-06
   -.431E-07 0.678E-07 0.106E+04   -.598E-11 0.343E-11 -.107E+04   -.347E-17 -.278E-16 0.806E+01   -.309E-10 0.178E-10 0.497E-06
   -.361E-06 0.208E-06 0.375E-10   0.325E-13 -.520E-13 0.000E+00   -.243E-16 -.520E-16 0.000E+00   -.948E-10 0.547E-10 -.270E-11

 POSITION                                       TOTAL-FORCE (eV/Angst)
     -0.00000      0.91970     25.00000         0.000000     -0.000000      0.000000
      1.59297      1.83941     26.57280        -0.000000      0.000000     -0.044250
      1.59297      1.83941     23.42720        -0.000000      0.000000      0.044250
    total drift:                               -0.000000      0.000000      0.000000

  FREE ENERGIE OF THE ION-ELECTRON SYSTEM (eV)
  free  energy   TOTEN  =       -26.25608190 eV

  energy  without entropy=      -26.25608190  energy(sigma->0) =      -26.25608190

 Linear response reoptimize wavefunctions
 Linear response G [H, r] |phi>, progress :
  Direction:   1

[...]

  free energy    TOTEN  =      -111.44743182 eV

[...]

 Linear response G [H, r] |phi>, progress :
  Direction:   2

[...]

 Linear response G [H, r] |phi>, progress :
  Direction:   3

[...]

  free energy    TOTEN  =      -113.37375713 eV

[...]

 Linear response to external field (no local field effect), progress :
  Direction:   1
  LATTYP: Found a hexagonal cell.
 ALAT       =     3.1859459497
 C/A-ratio  =    15.6939260082

[...]

The dynamic configuration has the point symmetry C_1h.

[...]

 Free energy of the ion-electron system (eV)
  -Hartree energ DENC   =         0.00000000
  -V(xc)+E(xc)   XCENC  =         0.00000000
  PAW double counting   =         0.00000000        0.00000000
  entropy T*S    EENTRO =         0.00000000
  eigenvalues    EBANDS =        -1.78416501
  free energy    TOTEN  =        -1.78416501 eV

  energy without entropy =       -1.78416501

[...]

 change of polarisation eV/A/(eV/A) component  1 :     4.148    -0.444     0.000
 dielectric tensor                  component  1 :     2.708    -0.183     0.000

[...]

The dynamic configuration has the point symmetry C_2v.

[...]

 Linear response to external field (no local field effect), progress :
  Direction:   3
  LATTYP: Found a hexagonal cell.
 ALAT       =     3.1859459497
 C/A-ratio  =    15.6939260082

[...]

The dynamic configuration has the point symmetry C_1h.
 The point group associated with its full space group is C_3v.

[...]

 HEAD OF MICROSCOPIC STATIC DIELECTRIC TENSOR (INDEPENDENT PARTICLE, excluding Hartree and local field effects)
           2.654483    -0.000000     0.000000
           0.000000     2.654483     0.000000
           0.000000     0.000000     1.863563

 Linear response to external field, progress :
  Direction:   1
  LATTYP: Found a hexagonal cell.
 ALAT       =     3.1859459497
 C/A-ratio  =    15.6939260082

[...]

The dynamic configuration has the point symmetry C_1h.

[...]

  Parameters of vdW forcefield:
            C6ts              R0ts           ALPHAts        RELVOL
            (au)              (au)            (au)
   W         865.216          4.096         71.761          1.010
   S         132.585          3.848         19.496          0.995
   S         132.585          3.848         19.496          0.995
  Edisp (eV):   -0.56142

[...]

 PIEZOELECTRIC TENSOR FIELD DIRECTION 1  (e Angst)
    -0.00236 -1.10094  0.00000           ( -0.00001  0.03691  0.00000)
    -1.10090  0.00199  0.00000           (  0.03691  0.00001  0.00000)
     0.00000  0.00000 -0.00017           (  0.00000  0.00000  0.00001)

 PIEZOELECTRIC TENSOR FIELD DIRECTION 1  (C/m^2)
    -0.00009 -0.04013  0.00000
    -0.04013  0.00007  0.00000
     0.00000  0.00000 -0.00001

      POSITION         DIRECTION 1           BORN EFFECTIVE CHARGE    (rigid.aug.   ionic)
     -0.00000      0.91970     25.00000    -0.42956 -0.00077  0.00000 (  1.96484 14.00000)
      1.59297      1.83941     26.57280     0.24672 -0.00026 -0.00011 (  0.65867  6.00000)
      1.59297      1.83941     23.42720     0.24672 -0.00026  0.00011 (  0.65867  6.00000)
    total drift (improves with k-points):   0.06387 -0.00130  0.00000

[...]

The dynamic configuration has the point symmetry C_2v.

[...]

 Linear response to external field, progress :
  Direction:   3
  LATTYP: Found a hexagonal cell.
 ALAT       =     3.1859459497
 C/A-ratio  =    15.6939260082

[...]

The dynamic configuration has the point symmetry C_1h.
 The point group associated with its full space group is C_3v.

[...]

----------------------------------------- Iteration    3(  21)  ---------------------------------------

 Broyden mixing:
  rms(total) = 0.61454E-06    rms(broyden)= 0.61450E-06
  rms(prec ) = 0.72180E-06
  weight for this iteration     100.00

 eigenvalues of (default mixing * dielectric matrix)
  average eigenvalue GAMMA=   2.5546
  8.5709  7.3874  5.0507  4.5210  3.0221  3.0221  2.2473  2.2473  1.7536  1.7536
  1.5379  0.8118  1.0541  1.0176  1.0176  0.9732  0.9732  0.8911  0.6855

 Free energy of the ion-electron system (eV)
  -Hartree energ DENC   =        -0.11147826
  -V(xc)+E(xc)   XCENC  =         0.00235099
  PAW double counting   =         0.00361702       -0.00362948
  entropy T*S    EENTRO =         0.00000000
  eigenvalues    EBANDS =        -0.03211341
  free energy    TOTEN  =        -0.14125314 eV

  energy without entropy =       -0.14125314

------------------------ aborting loop because EDIFF is reached ----------------------------------------

 change of polarisation eV/A/(eV/A) component  3 :     0.000     0.000     0.275
 dielectric tensor                  component  3 :     0.000     0.000     1.113

[...]

  Hirshfeld charges:
            ion         q(e)
      1     W           0.353
      2     S          -0.177
      3     S          -0.177

  Tkatchenko/Scheffler method for vdW energy calculation

  Parameters of vdW forcefield:
            C6ts              R0ts           ALPHAts        RELVOL
            (au)              (au)            (au)
   W         865.216          4.096         71.761          1.010
   S         132.585          3.848         19.496          0.995
   S         132.585          3.848         19.496          0.995
  Edisp (eV):   -0.56142

 PIEZOELECTRIC TENSOR FIELD DIRECTION 3  (e Angst)
    -0.00003 -0.00000  0.00000           (  0.00000 -0.00000  0.00000)
    -0.00000 -0.00003  0.00000           (  0.00000  0.00000 -0.00000)
    -0.00000 -0.00000 -0.00001           ( -0.00000 -0.00000 -0.00000)

 PIEZOELECTRIC TENSOR FIELD DIRECTION 3  (C/m^2)
    -0.00000 -0.00000  0.00000
    -0.00000 -0.00000  0.00000
    -0.00000 -0.00000 -0.00000

      POSITION         DIRECTION 3           BORN EFFECTIVE CHARGE    (rigid.aug.   ionic)
     -0.00000      0.91970     25.00000     0.00000 -0.00000  0.00083 (  1.96484 14.00000)
      1.59297      1.83941     26.57280     0.00000  0.00000  0.02704 (  0.65867  6.00000)
      1.59297      1.83941     23.42720    -0.00000  0.00000  0.02704 (  0.65867  6.00000)
    total drift (improves with k-points):   0.00000  0.00000  0.05490

[...]

 MACROSCOPIC STATIC DIELECTRIC TENSOR (including local field effects in DFT)
           2.573105    -0.000000     0.000000
          -0.000000     2.573105     0.000000
           0.000000     0.000000     1.113395

  LATTYP: Found a hexagonal cell.
 ALAT       =     3.1859459497
 C/A-ratio  =    15.6939260082

  Lattice vectors:

 A1 = (   3.1859459497,   0.0000000000,   0.0000000000)
 A2 = (  -1.5929729748,   2.7591101275,   0.0000000000)
 A3 = (   0.0000000000,   0.0000000000,  50.0000000000)

Analysis of symmetry for initial positions (statically):
 Subroutine PRICEL returns:
 Original cell was already a primitive cell.

[...]

The static configuration has the point symmetry C_2v.
 The point group associated with its full space group is D_3h.

Analysis of symmetry for dynamics (positions and initial velocities):
 Subroutine PRICEL returns:
 Original cell was already a primitive cell.

 Routine SETGRP: Setting up the symmetry group for a
 hexagonal supercell.

 Subroutine GETGRP returns: Found 12 space group operations
 (whereof  4 operations were pure point group operations)
 out of a pool of 24 trial point group operations.

The dynamic configuration has the point symmetry C_2v.
 The point group associated with its full space group is D_3h.

 Subroutine INISYM returns: Found 12 space group operations
 (whereof  4 operations are pure point group operations),
 and found     1 'primitive' translations

 MACROSCOPIC STATIC DIELECTRIC TENSOR (including local field effects in DFT)
           2.573105    -0.000000     0.000000
          -0.000000     2.573105     0.000000
           0.000000     0.000000     1.113395

 PIEZOELECTRIC TENSOR  for field in x, y, z        (e  Angst)
          XX          YY          ZZ          XY          YZ          ZX
  x    -0.00236     0.00199    -0.00017    -1.10090     0.00000     0.00000
  y    -1.10314     1.10405     0.00056     0.00000     0.00000     0.00000
  z    -0.00003    -0.00003    -0.00001    -0.00000    -0.00000     0.00000

 PIEZOELECTRIC TENSOR  for field in x, y, z        (C/m^2)
          XX          YY          ZZ          XY          YZ          ZX
  x     0.00000     0.00000     0.00000    -0.04018     0.00000     0.00000
  y    -0.04018     0.04018    -0.00000     0.00000     0.00000     0.00000
  z     0.00000     0.00000     0.00000    -0.00000    -0.00000    -0.00000

 BORN EFFECTIVE CHARGES (in e, cummulative output)
 ion    1
    1    -0.42956    -0.00077     0.00000
    2     0.00000    -0.43036     0.00000
    3     0.00000    -0.00000     0.00083
 ion    2
    1     0.24672    -0.00026    -0.00011
    2     0.00000     0.24711     0.00030
    3     0.00000     0.00000     0.02704
 ion    3
    1     0.24672    -0.00026     0.00011
    2     0.00000     0.24711    -0.00030
    3    -0.00000     0.00000     0.02704

 writing wavefunctions
 BZINTS: Fermi energy: -3.991399; 26.000000 electrons
         Band energy:-582.130824;  BLOECHL correction:  0.000000