 vasp.5.4.1 24Jun15 (build Apr 13 2016 13:07:19) complex

 executed on           IFC91_ompi date 2019.09.14  00:05:51

 INCAR:
 POTCAR:    PAW_PBE W_sv_GW 23Mar2010
 POTCAR:    PAW_PBE Se_GW 20Mar2012

 POTCAR:    PAW_PBE W_sv_GW 23Mar2010
   VRHFIN =W: 5p6s5d

   TITEL  = PAW_PBE W_sv_GW 23Mar2010
   POMASS =  183.850; ZVAL   =   14.000    mass and valenz
   ENMAX  =  317.132; ENMIN  =  237.849 eV

 POTCAR:    PAW_PBE Se_GW 20Mar2012
   VRHFIN =Se: s2p4

   TITEL  = PAW_PBE Se_GW 20Mar2012
   POMASS =   78.960; ZVAL   =    6.000    mass and valenz
   ENMAX  =  211.555; ENMIN  =  158.666 eV

  PAW_PBE W_sv_GW 23Mar2010             :
  PAW_PBE Se_GW 20Mar2012               :

 POSCAR:  W Se
  positions in cartesian coordinates
 exchange correlation table for  LEXCH =        8
   RHO(1)=    0.500       N(1)  =     2000
   RHO(2)=  100.500       N(2)  =     4000

 ion  position               nearest neighbor table
   1  0.167  0.333  0.240-   6 2.55   7 2.55   6 2.55   7 2.55   6 2.55   7 2.55
   2  0.833  0.667  0.370-   9 2.55   9 2.55   9 2.55   8 2.55   8 2.55   8 2.55
   3  0.167  0.333  0.500-  10 2.55  11 2.55  10 2.55  11 2.55  10 2.55  11 2.55
   4  0.833  0.667  0.630-  12 2.55  12 2.55  12 2.55  13 2.55  13 2.55  13 2.55
   5  0.167  0.333  0.760-  14 2.55  15 2.55  14 2.55  15 2.55  14 2.55  15 2.55
   6  0.833  0.667  0.274-   1 2.55   1 2.55   1 2.55
   7  0.833  0.667  0.207-   1 2.55   1 2.55   1 2.55
   8  0.167  0.333  0.404-   2 2.55   2 2.55   2 2.55
   9  0.167  0.333  0.337-   2 2.55   2 2.55   2 2.55
  10  0.833  0.667  0.534-   3 2.55   3 2.55   3 2.55
  11  0.833  0.667  0.466-   3 2.55   3 2.55   3 2.55
  12  0.167  0.333  0.663-   4 2.55   4 2.55   4 2.55
  13  0.167  0.333  0.596-   4 2.55   4 2.55   4 2.55
  14  0.833  0.667  0.793-   5 2.55   5 2.55   5 2.55
  15  0.833  0.667  0.726-   5 2.55   5 2.55   5 2.55

  LATTYP: Found a hexagonal cell.
 ALAT       =     3.3190066245
 C/A-ratio  =    15.0647484797

  Lattice vectors:

 A1 = (   3.3190066245,   0.0000000000,   0.0000000000)
 A2 = (  -1.6595033122,   2.8743440521,   0.0000000000)
 A3 = (   0.0000000000,   0.0000000000,  50.0000000000)

Analysis of symmetry for initial positions (statically):
 Subroutine PRICEL returns:
 Original cell was already a primitive cell.

 Routine SETGRP: Setting up the symmetry group for a
 hexagonal supercell.

 Subroutine GETGRP returns: Found 12 space group operations
 (whereof  4 operations were pure point group operations)
 out of a pool of 24 trial point group operations.

The static configuration has the point symmetry C_2v.
 The point group associated with its full space group is D_3h.

Analysis of symmetry for dynamics (positions and initial velocities):
 Subroutine PRICEL returns:
 Original cell was already a primitive cell.

[...]

The dynamic configuration has the point symmetry C_2v.
 The point group associated with its full space group is D_3h.

 Subroutine INISYM returns: Found 12 space group operations
 (whereof  4 operations are pure point group operations),
 and found     1 'primitive' translations

 KPOINTS: KPOINTS created by Atomic Simulation Env

Automatic generation of k-mesh.
Space group operators:
 irot       det(A)        alpha          n_x          n_y          n_z        tau_x        tau_y        tau_z
    1     1.000000     0.000000     1.000000     0.000000     0.000000     0.000000     0.000000     0.000000
    2    -1.000000   179.999999     0.000000     0.000000     1.000000     0.000000     0.000000     0.000000
    3    -1.000000   180.000000     1.000000     0.000000     0.000000     0.000000     0.000000     0.000000
    4     1.000000   180.000000     0.000000     1.000000     0.000000     0.000000     0.000000     0.000000
    5    -1.000000    60.000000     0.000000     0.000000    -1.000000     0.000000     0.500000     0.000000
    6     1.000000   120.000000     0.000000     0.000000    -1.000000     0.500000     0.500000     0.000000
    7     1.000000   120.000000     0.000000     0.000000     1.000000     0.000000     0.500000     0.000000
    8    -1.000000    60.000000     0.000000     0.000000     1.000000     0.500000     0.500000     0.000000
    9     1.000000   180.000000     0.866025    -0.500000     0.000000     0.500000     0.500000     0.000000
   10    -1.000000   180.000000     0.500000    -0.866025     0.000000    -0.000000     0.500000     0.000000
   11    -1.000000   180.000000    -0.500000    -0.866025     0.000000     0.500000     0.500000     0.000000
   12     1.000000   180.000000     0.866025     0.500000     0.000000    -0.000000     0.500000     0.000000

 Subroutine IBZKPT returns following result:

 Found     37 irreducible k-points:

 Following reciprocal coordinates:
            Coordinates               Weight
  0.000000  0.000000  0.000000      1.000000
  0.055556  0.000000  0.000000      6.000000
  0.111111  0.000000  0.000000      6.000000
  0.166667  0.000000  0.000000      6.000000
  0.222222  0.000000  0.000000      6.000000
  0.277778  0.000000  0.000000      6.000000
  0.333333  0.000000  0.000000      6.000000
  0.388889  0.000000  0.000000      6.000000
  0.444444  0.000000  0.000000      6.000000
  0.500000  0.000000  0.000000      3.000000
  0.055556  0.055556  0.000000      6.000000
  0.111111  0.055556  0.000000     12.000000
  0.166667  0.055556  0.000000     12.000000
  0.222222  0.055556  0.000000     12.000000
  0.277778  0.055556  0.000000     12.000000
  0.333333  0.055556  0.000000     12.000000
  0.388889  0.055556  0.000000     12.000000
  0.444444  0.055556  0.000000     12.000000
  0.111111  0.111111  0.000000      6.000000
  0.166667  0.111111  0.000000     12.000000
  0.222222  0.111111  0.000000     12.000000
  0.277778  0.111111  0.000000     12.000000
  0.333333  0.111111  0.000000     12.000000
  0.388889  0.111111  0.000000     12.000000
  0.444444  0.111111  0.000000      6.000000
  0.166667  0.166667  0.000000      6.000000
  0.222222  0.166667  0.000000     12.000000
  0.277778  0.166667  0.000000     12.000000
  0.333333  0.166667  0.000000     12.000000
  0.388889  0.166667  0.000000     12.000000
  0.222222  0.222222  0.000000      6.000000
  0.277778  0.222222  0.000000     12.000000
  0.333333  0.222222  0.000000     12.000000
  0.388889  0.222222  0.000000      6.000000
  0.277778  0.277778  0.000000      6.000000
  0.333333  0.277778  0.000000     12.000000
  0.333333  0.333333  0.000000      2.000000

 Following cartesian coordinates:
            Coordinates               Weight
  0.000000  0.000000  0.000000      1.000000
  0.016739  0.009664  0.000000      6.000000
  0.033477  0.019328  0.000000      6.000000
  0.050216  0.028992  0.000000      6.000000
  0.066954  0.038656  0.000000      6.000000
  0.083693  0.048320  0.000000      6.000000
  0.100432  0.057984  0.000000      6.000000
  0.117170  0.067648  0.000000      6.000000
  0.133909  0.077312  0.000000      6.000000
  0.150647  0.086976  0.000000      3.000000
  0.016739  0.028992  0.000000      6.000000
  0.033477  0.038656  0.000000     12.000000
  0.050216  0.048320  0.000000     12.000000
  0.066954  0.057984  0.000000     12.000000
  0.083693  0.067648  0.000000     12.000000
  0.100432  0.077312  0.000000     12.000000
  0.117170  0.086976  0.000000     12.000000
  0.133909  0.096640  0.000000     12.000000
  0.033477  0.057984  0.000000      6.000000
  0.050216  0.067648  0.000000     12.000000
  0.066954  0.077312  0.000000     12.000000
  0.083693  0.086976  0.000000     12.000000
  0.100432  0.096640  0.000000     12.000000
  0.117170  0.106304  0.000000     12.000000
  0.133909  0.115968  0.000000      6.000000
  0.050216  0.086976  0.000000      6.000000
  0.066954  0.096640  0.000000     12.000000
  0.083693  0.106304  0.000000     12.000000
  0.100432  0.115968  0.000000     12.000000
  0.117170  0.125633  0.000000     12.000000
  0.066954  0.115968  0.000000      6.000000
  0.083693  0.125633  0.000000     12.000000
  0.100432  0.135297  0.000000     12.000000
  0.117170  0.144961  0.000000      6.000000
  0.083693  0.144961  0.000000      6.000000
  0.100432  0.154625  0.000000     12.000000
  0.100432  0.173953  0.000000      2.000000

 TETIRR: Found    169 inequivalent tetrahedra from     1944

 Subroutine IBZKPT_HF returns following result:

 Found    324 k-points in 1st BZ
 the following    324 k-points will be used (e.g. in the exchange kernel)
 Following reciprocal coordinates:   # in IRBZ
  0.000000  0.000000  0.000000    0.00308642   1 t-inv F
  0.055556  0.000000  0.000000    0.00308642   2 t-inv F
  0.111111  0.000000  0.000000    0.00308642   3 t-inv F
  0.166667  0.000000  0.000000    0.00308642   4 t-inv F
  0.222222  0.000000  0.000000    0.00308642   5 t-inv F
  0.277778  0.000000  0.000000    0.00308642   6 t-inv F
  0.333333  0.000000  0.000000    0.00308642   7 t-inv F
  0.388889  0.000000  0.000000    0.00308642   8 t-inv F
  0.444444  0.000000  0.000000    0.00308642   9 t-inv F
  0.500000  0.000000  0.000000    0.00308642  10 t-inv F
  0.055556  0.055556  0.000000    0.00308642  11 t-inv F
  0.111111  0.055556  0.000000    0.00308642  12 t-inv F
  0.166667  0.055556  0.000000    0.00308642  13 t-inv F
  0.222222  0.055556  0.000000    0.00308642  14 t-inv F
  0.277778  0.055556  0.000000    0.00308642  15 t-inv F
  0.333333  0.055556  0.000000    0.00308642  16 t-inv F
  0.388889  0.055556  0.000000    0.00308642  17 t-inv F
  0.444444  0.055556  0.000000    0.00308642  18 t-inv F
  0.111111  0.111111  0.000000    0.00308642  19 t-inv F
  0.166667  0.111111  0.000000    0.00308642  20 t-inv F
  0.222222  0.111111  0.000000    0.00308642  21 t-inv F
  0.277778  0.111111  0.000000    0.00308642  22 t-inv F
  0.333333  0.111111  0.000000    0.00308642  23 t-inv F
  0.388889  0.111111  0.000000    0.00308642  24 t-inv F
  0.444444  0.111111  0.000000    0.00308642  25 t-inv F
  0.166667  0.166667  0.000000    0.00308642  26 t-inv F
  0.222222  0.166667  0.000000    0.00308642  27 t-inv F
  0.277778  0.166667  0.000000    0.00308642  28 t-inv F
  0.333333  0.166667  0.000000    0.00308642  29 t-inv F
  0.388889  0.166667  0.000000    0.00308642  30 t-inv F
  0.222222  0.222222  0.000000    0.00308642  31 t-inv F
  0.277778  0.222222  0.000000    0.00308642  32 t-inv F
  0.333333  0.222222  0.000000    0.00308642  33 t-inv F
  0.388889  0.222222  0.000000    0.00308642  34 t-inv F
  0.277778  0.277778  0.000000    0.00308642  35 t-inv F
  0.333333  0.277778  0.000000    0.00308642  36 t-inv F
  0.333333  0.333333  0.000000    0.00308642  37 t-inv F
 -0.055556  0.055556  0.000000    0.00308642   2 t-inv F
  0.000000 -0.055556 -0.000000    0.00308642   2 t-inv F
 -0.111111  0.111111  0.000000    0.00308642   3 t-inv F
  0.000000 -0.111111 -0.000000    0.00308642   3 t-inv F
 -0.166667  0.166667  0.000000    0.00308642   4 t-inv F
  0.000000 -0.166667 -0.000000    0.00308642   4 t-inv F
 -0.222222  0.222222  0.000000    0.00308642   5 t-inv F
  0.000000 -0.222222 -0.000000    0.00308642   5 t-inv F
 -0.277778  0.277778  0.000000    0.00308642   6 t-inv F
  0.000000 -0.277778 -0.000000    0.00308642   6 t-inv F
 -0.333333  0.333333  0.000000    0.00308642   7 t-inv F
[...]
   0.278E-06 -.161E-06 0.145E-09   0.158E-12 -.203E-12 -.296E-11   -.276E-17 0.997E-17 0.444E-15   0.565E-09 -.326E-09 0.674E-11

 POSITION                                       TOTAL-FORCE (eV/Angst)
     -0.00000      0.95811     12.02000         0.000000     -0.000000      0.045511
      1.65950      1.91623     18.51000        -0.000000     -0.000000      0.000769
     -0.00000      0.95811     25.00000         0.000000      0.000000      0.000000
      1.65950      1.91623     31.49000        -0.000000      0.000000     -0.000769
     -0.00000      0.95811     37.98000         0.000000     -0.000000     -0.045511
      1.65950      1.91623     13.69928         0.000000     -0.000000     -0.102539
      1.65950      1.91623     10.34072        -0.000000      0.000000      0.055163
     -0.00000      0.95811     20.18928         0.000000      0.000000     -0.115907
     -0.00000      0.95811     16.83072         0.000000      0.000000      0.117465
      1.65950      1.91623     26.67928         0.000000      0.000000     -0.116222
      1.65950      1.91623     23.32072         0.000000     -0.000000      0.116222
     -0.00000      0.95811     33.16928         0.000000      0.000000     -0.117465
     -0.00000      0.95811     29.81072         0.000000     -0.000000      0.115907
      1.65950      1.91623     39.65928        -0.000000     -0.000000     -0.055163
      1.65950      1.91623     36.30072         0.000000      0.000000      0.102539
    total drift:                                0.000000     -0.000000      0.000000

  FREE ENERGIE OF THE ION-ELECTRON SYSTEM (eV)
  free  energy   TOTEN  =      -122.52652032 eV

  energy  without entropy=     -122.52652032  energy(sigma->0) =     -122.52652032

 Linear response reoptimize wavefunctions
 Linear response G [H, r] |phi>, progress :
  Direction:   1

[...]

  free energy    TOTEN  =      -612.60520854 eV

[...]

 Linear response G [H, r] |phi>, progress :
  Direction:   2

[...]

 Linear response G [H, r] |phi>, progress :
  Direction:   3

[...]

  free energy    TOTEN  =      -602.38514764 eV

[...]

 Linear response to external field (no local field effect), progress :
  Direction:   1
  LATTYP: Found a hexagonal cell.
 ALAT       =     3.3190066245
 C/A-ratio  =    15.0647484797

[...]

The dynamic configuration has the point symmetry C_1h.

[...]

 Free energy of the ion-electron system (eV)
  -Hartree energ DENC   =         0.00000000
  -V(xc)+E(xc)   XCENC  =         0.00000000
  PAW double counting   =         0.00000000        0.00000000
  entropy T*S    EENTRO =         0.00000000
  eigenvalues    EBANDS =       -10.60038931
  free energy    TOTEN  =       -10.60038931 eV

  energy without entropy =      -10.60038931

[...]

 change of polarisation eV/A/(eV/A) component  1 :    26.210    -2.802     0.000
 dielectric tensor                  component  1 :    10.943    -1.063     0.000

[...]

The dynamic configuration has the point symmetry C_2v.

[...]

 Linear response to external field (no local field effect), progress :
  Direction:   3
  LATTYP: Found a hexagonal cell.
 ALAT       =     3.3190066245
 C/A-ratio  =    15.0647484797

[...]

The dynamic configuration has the point symmetry C_1h.
 The point group associated with its full space group is C_3v.

[...]

 HEAD OF MICROSCOPIC STATIC DIELECTRIC TENSOR (INDEPENDENT PARTICLE, excluding Hartree and local field effects)
          10.757958     0.000000     0.000000
           0.000000    10.757958     0.000000
           0.000000    -0.000000     7.057152

 Linear response to external field, progress :
  Direction:   1
  LATTYP: Found a hexagonal cell.
 ALAT       =     3.3190066245
 C/A-ratio  =    15.0647484797

[...]

The dynamic configuration has the point symmetry C_1h.

[...]

  Parameters of vdW forcefield:
            C6ts              R0ts           ALPHAts        RELVOL
            (au)              (au)            (au)
   W         896.455          4.120         73.045          1.028
   W         902.572          4.125         73.294          1.032
   W         902.619          4.125         73.296          1.032
   W         902.572          4.125         73.294          1.032
   W         896.455          4.120         73.045          1.028
   Se        213.931          4.057         25.233          1.009
   Se        209.415          4.042         24.965          0.999
   Se        213.940          4.057         25.233          1.009
   Se        213.925          4.057         25.232          1.009
   Se        213.940          4.057         25.233          1.009
   Se        213.940          4.057         25.233          1.009
   Se        213.925          4.057         25.232          1.009
   Se        213.940          4.057         25.233          1.009
   Se        209.415          4.042         24.965          0.999
   Se        213.931          4.057         25.233          1.009
  Edisp (eV):   -4.30866

[...]

 PIEZOELECTRIC TENSOR FIELD DIRECTION 1  (e Angst)
    -0.01345 -0.97166  0.00000           ( -0.00002  0.07411  0.00000)
    -0.97169  0.01107  0.00000           (  0.07411  0.00010  0.00000)
     0.00000  0.00000 -0.00050           (  0.00000  0.00000  0.00004)

 PIEZOELECTRIC TENSOR FIELD DIRECTION 1  (C/m^2)
    -0.00045 -0.03264  0.00000
    -0.03264  0.00037  0.00000
     0.00000  0.00000 -0.00002

      POSITION         DIRECTION 1           BORN EFFECTIVE CHARGE    (rigid.aug.   ionic)
     -0.00000      0.95811     12.02000    -1.12593 -0.00070  0.00001 (  1.95585 14.00000)
      1.65950      1.91623     18.51000    -1.14017  0.00073  0.00002 (  1.95582 14.00000)
     -0.00000      0.95811     25.00000    -1.14524 -0.00072  0.00000 (  1.95582 14.00000)
      1.65950      1.91623     31.49000    -1.14017  0.00073 -0.00002 (  1.95582 14.00000)
     -0.00000      0.95811     37.98000    -1.12593 -0.00070 -0.00001 (  1.95585 14.00000)
      1.65950      1.91623     13.69928     0.58429 -0.00032 -0.00024 (  1.12261  6.00000)
      1.65950      1.91623     10.34072     0.59223 -0.00034  0.00015 (  1.12106  6.00000)
     -0.00000      0.95811     20.18928     0.59157  0.00033 -0.00024 (  1.12267  6.00000)
     -0.00000      0.95811     16.83072     0.59220  0.00034  0.00024 (  1.12265  6.00000)
      1.65950      1.91623     26.67928     0.59148 -0.00033 -0.00024 (  1.12267  6.00000)
      1.65950      1.91623     23.32072     0.59148 -0.00033  0.00024 (  1.12267  6.00000)
     -0.00000      0.95811     33.16928     0.59220  0.00034 -0.00024 (  1.12265  6.00000)
     -0.00000      0.95811     29.81072     0.59157  0.00033  0.00024 (  1.12267  6.00000)
      1.65950      1.91623     39.65928     0.59223 -0.00034 -0.00015 (  1.12106  6.00000)
      1.65950      1.91623     36.30072     0.58429 -0.00032  0.00024 (  1.12261  6.00000)
    total drift (improves with k-points):   0.22609 -0.00132  0.00000

[...]

The dynamic configuration has the point symmetry C_2v.

[...]

 Linear response to external field, progress :
  Direction:   3
  LATTYP: Found a hexagonal cell.
 ALAT       =     3.3190066245
 C/A-ratio  =    15.0647484797

[...]

The dynamic configuration has the point symmetry C_1h.
 The point group associated with its full space group is C_3v.

[...]

----------------------------------------- Iteration    3(  24)  ---------------------------------------

 Broyden mixing:
  rms(total) = 0.99928E-06    rms(broyden)= 0.99916E-06
  rms(prec ) = 0.10237E-05
  weight for this iteration     100.00

 eigenvalues of (default mixing * dielectric matrix)
  average eigenvalue GAMMA=   2.2513
  9.7392  7.2162  4.5990  3.6617  3.0328  3.0328  2.2208  2.2208  1.7504  1.7504
  0.9872  0.9872  1.0399  0.9699  0.9699  0.9852  0.8837  0.7374  0.6691  0.6726
  0.6925  0.7100

 Free energy of the ion-electron system (eV)
  -Hartree energ DENC   =        -1.22970772
  -V(xc)+E(xc)   XCENC  =         0.02582214
  PAW double counting   =         0.07483461       -0.07429122
  entropy T*S    EENTRO =         0.00000000
  eigenvalues    EBANDS =        -0.51440021
  free energy    TOTEN  =        -1.71774240 eV

  energy without entropy =       -1.71774240

------------------------ aborting loop because EDIFF is reached ----------------------------------------

 change of polarisation eV/A/(eV/A) component  3 :     0.000     0.000     3.365
 dielectric tensor                  component  3 :     0.000     0.000     2.277

[...]

  Hirshfeld charges:
            ion         q(e)
      1     W           0.285
      2     W           0.284
      3     W           0.284
      4     W           0.284
      5     W           0.285
      6     Se         -0.142
      7     Se         -0.143
      8     Se         -0.142
      9     Se         -0.142
     10     Se         -0.142
     11     Se         -0.142
     12     Se         -0.142
     13     Se         -0.142
     14     Se         -0.143
     15     Se         -0.142

  Tkatchenko/Scheffler method for vdW energy calculation

  Parameters of vdW forcefield:
            C6ts              R0ts           ALPHAts        RELVOL
            (au)              (au)            (au)
   W         896.455          4.120         73.045          1.028
   W         902.572          4.125         73.294          1.032
   W         902.619          4.125         73.296          1.032
   W         902.572          4.125         73.294          1.032
   W         896.455          4.120         73.045          1.028
   Se        213.931          4.057         25.233          1.009
   Se        209.415          4.042         24.965          0.999
   Se        213.940          4.057         25.233          1.009
   Se        213.925          4.057         25.232          1.009
   Se        213.940          4.057         25.233          1.009
   Se        213.940          4.057         25.233          1.009
   Se        213.925          4.057         25.232          1.009
   Se        213.940          4.057         25.233          1.009
   Se        209.415          4.042         24.965          0.999
   Se        213.931          4.057         25.233          1.009
  Edisp (eV):   -4.30866

 PIEZOELECTRIC TENSOR FIELD DIRECTION 3  (e Angst)
     0.00002 -0.00000  0.00000           (  0.00000  0.00000  0.00000)
    -0.00000  0.00002  0.00000           (  0.00000  0.00000 -0.00000)
     0.00000  0.00000  0.00003           (  0.00000 -0.00000  0.00000)

 PIEZOELECTRIC TENSOR FIELD DIRECTION 3  (C/m^2)
     0.00000 -0.00000  0.00000
    -0.00000  0.00000  0.00000
     0.00000  0.00000  0.00000

      POSITION         DIRECTION 3           BORN EFFECTIVE CHARGE    (rigid.aug.   ionic)
     -0.00000      0.95811     12.02000     0.00000  0.00000-47.03886 (  1.95585 14.00000)
      1.65950      1.91623     18.51000    -0.00000  0.00000-12.46286 (  1.95582 14.00000)
     -0.00000      0.95811     25.00000     0.00000  0.00000 -1.83501 (  1.95582 14.00000)
      1.65950      1.91623     31.49000    -0.00000  0.00000-12.46286 (  1.95582 14.00000)
     -0.00000      0.95811     37.98000    -0.00000  0.00000-47.03879 (  1.95585 14.00000)
      1.65950      1.91623     13.69928     0.00000  0.00000 -3.96813 (  1.12261  6.00000)
      1.65950      1.91623     10.34072    -0.00000  0.00000  4.48836 (  1.12106  6.00000)
     -0.00000      0.95811     20.18928     0.00000  0.00000 -0.14121 (  1.12267  6.00000)
     -0.00000      0.95811     16.83072    -0.00000  0.00000  0.98825 (  1.12265  6.00000)
      1.65950      1.91623     26.67928     0.00000 -0.00000  0.93526 (  1.12267  6.00000)
      1.65950      1.91623     23.32072    -0.00000  0.00000  0.93526 (  1.12267  6.00000)
     -0.00000      0.95811     33.16928     0.00000  0.00000  0.98826 (  1.12265  6.00000)
     -0.00000      0.95811     29.81072    -0.00000 -0.00000 -0.14121 (  1.12267  6.00000)
      1.65950      1.91623     39.65928     0.00000 -0.00000  4.48836 (  1.12106  6.00000)
      1.65950      1.91623     36.30072     0.00000  0.00000 -3.96814 (  1.12261  6.00000)
    total drift (improves with k-points):   0.00000  0.00000*********

[...]

 MACROSCOPIC STATIC DIELECTRIC TENSOR (including local field effects in DFT)
          10.335556     0.000000     0.000000
          -0.000000    10.335556     0.000000
           0.000000     0.000000     2.276580

  LATTYP: Found a hexagonal cell.
 ALAT       =     3.3190066245
 C/A-ratio  =    15.0647484797

  Lattice vectors:

 A1 = (   3.3190066245,   0.0000000000,   0.0000000000)
 A2 = (  -1.6595033122,   2.8743440521,   0.0000000000)
 A3 = (   0.0000000000,   0.0000000000,  50.0000000000)

Analysis of symmetry for initial positions (statically):
 Subroutine PRICEL returns:
 Original cell was already a primitive cell.

[...]

The static configuration has the point symmetry C_2v.
 The point group associated with its full space group is D_3h.

Analysis of symmetry for dynamics (positions and initial velocities):
 Subroutine PRICEL returns:
 Original cell was already a primitive cell.

 Routine SETGRP: Setting up the symmetry group for a
 hexagonal supercell.

 Subroutine GETGRP returns: Found 12 space group operations
 (whereof  4 operations were pure point group operations)
 out of a pool of 24 trial point group operations.

The dynamic configuration has the point symmetry C_2v.
 The point group associated with its full space group is D_3h.

 Subroutine INISYM returns: Found 12 space group operations
 (whereof  4 operations are pure point group operations),
 and found     1 'primitive' translations

 MACROSCOPIC STATIC DIELECTRIC TENSOR (including local field effects in DFT)
          10.335556     0.000000     0.000000
          -0.000000    10.335556     0.000000
           0.000000     0.000000     2.276580

 PIEZOELECTRIC TENSOR  for field in x, y, z        (e  Angst)
          XX          YY          ZZ          XY          YZ          ZX
  x    -0.01345     0.01107    -0.00050    -0.97169     0.00000     0.00000
  y    -0.98551     0.99055     0.00211     0.00000     0.00000     0.00000
  z     0.00002     0.00002     0.00003    -0.00000     0.00000     0.00000

 PIEZOELECTRIC TENSOR  for field in x, y, z        (C/m^2)
          XX          YY          ZZ          XY          YZ          ZX
  x     0.00000     0.00000     0.00000    -0.03291     0.00000     0.00000
  y    -0.03291     0.03291    -0.00000    -0.00000     0.00000     0.00000
  z     0.00000     0.00000     0.00000     0.00000    -0.00000     0.00000

 BORN EFFECTIVE CHARGES (in e, cummulative output)
 ion    1
    1    -1.12593    -0.00070     0.00001
    2     0.00000    -1.12665    -0.00002
    3     0.00000     0.00000   -47.03886
 ion    2
    1    -1.14017     0.00073     0.00002
    2    -0.00000    -1.13946    -0.00001
    3    -0.00000     0.00000   -12.46286
 ion    3
    1    -1.14524    -0.00072     0.00000
    2     0.00000    -1.14593     0.00000
    3     0.00000     0.00000    -1.83501
 ion    4
    1    -1.14017     0.00073    -0.00002
    2    -0.00000    -1.13946     0.00001
    3    -0.00000     0.00000   -12.46286
 ion    5
    1    -1.12593    -0.00070    -0.00001
    2     0.00000    -1.12665     0.00002
    3    -0.00000     0.00000   -47.03879
 ion    6
    1     0.58429    -0.00032    -0.00024
    2     0.00000     0.58465     0.00061
    3     0.00000     0.00000    -3.96813
 ion    7
    1     0.59223    -0.00034     0.00015
    2    -0.00000     0.59255    -0.00041
    3    -0.00000     0.00000     4.48836
 ion    8
    1     0.59157     0.00033    -0.00024
    2    -0.00000     0.59117     0.00061
    3     0.00000     0.00000    -0.14121
 ion    9
    1     0.59220     0.00034     0.00024
    2    -0.00000     0.59182    -0.00060
    3    -0.00000     0.00000     0.98825
 ion   10
    1     0.59148    -0.00033    -0.00024
    2     0.00000     0.59186     0.00062
    3     0.00000    -0.00000     0.93526
 ion   11
    1     0.59148    -0.00033     0.00024
    2     0.00000     0.59186    -0.00062
    3    -0.00000     0.00000     0.93526
 ion   12
    1     0.59220     0.00034    -0.00024
    2    -0.00000     0.59182     0.00060
    3     0.00000     0.00000     0.98826
 ion   13
    1     0.59157     0.00033     0.00024
    2    -0.00000     0.59117    -0.00061
    3    -0.00000    -0.00000    -0.14121
 ion   14
    1     0.59223    -0.00034    -0.00015
    2    -0.00000     0.59255     0.00041
    3     0.00000    -0.00000     4.48836
 ion   15
    1     0.58429    -0.00032     0.00024
    2     0.00000     0.58465    -0.00061
    3     0.00000     0.00000    -3.96814

 writing wavefunctions
 BZINTS: Fermi energy:  2.536762;130.000000 electrons
         Band energy:***********;  BLOECHL correction:  0.000000