 vasp.5.4.1 24Jun15 (build Apr 13 2016 13:07:19) complex

 executed on           IFC91_ompi date 2019.09.13  23:59:33

 INCAR:
 POTCAR:    PAW_PBE W_sv_GW 23Mar2010
 POTCAR:    PAW_PBE Se_GW 20Mar2012

 POTCAR:    PAW_PBE W_sv_GW 23Mar2010
   VRHFIN =W: 5p6s5d

   TITEL  = PAW_PBE W_sv_GW 23Mar2010
   POMASS =  183.850; ZVAL   =   14.000    mass and valenz
   ENMAX  =  317.132; ENMIN  =  237.849 eV

 POTCAR:    PAW_PBE Se_GW 20Mar2012
   VRHFIN =Se: s2p4

   TITEL  = PAW_PBE Se_GW 20Mar2012
   POMASS =   78.960; ZVAL   =    6.000    mass and valenz
   ENMAX  =  211.555; ENMIN  =  158.666 eV

  PAW_PBE W_sv_GW 23Mar2010             :
  PAW_PBE Se_GW 20Mar2012               :

 POSCAR:  W Se
  positions in cartesian coordinates
 exchange correlation table for  LEXCH =        8
   RHO(1)=    0.500       N(1)  =     2000
   RHO(2)=  100.500       N(2)  =     4000

 ion  position               nearest neighbor table
   1  0.167  0.333  0.305-   5 2.55   6 2.55   5 2.55   6 2.55   5 2.55   6 2.55
   2  0.833  0.667  0.435-   7 2.55   8 2.55   7 2.55   8 2.55   7 2.55   8 2.55
   3  0.167  0.333  0.565-   9 2.55  10 2.55   9 2.55  10 2.55   9 2.55  10 2.55
   4  0.833  0.667  0.695-  11 2.55  12 2.55  11 2.55  12 2.55  11 2.55  12 2.55
   5  0.833  0.667  0.339-   1 2.55   1 2.55   1 2.55
   6  0.833  0.667  0.272-   1 2.55   1 2.55   1 2.55
   7  0.167  0.333  0.469-   2 2.55   2 2.55   2 2.55
   8  0.167  0.333  0.402-   2 2.55   2 2.55   2 2.55
   9  0.833  0.667  0.598-   3 2.55   3 2.55   3 2.55
  10  0.833  0.667  0.531-   3 2.55   3 2.55   3 2.55
  11  0.167  0.333  0.728-   4 2.55   4 2.55   4 2.55
  12  0.167  0.333  0.661-   4 2.55   4 2.55   4 2.55

  LATTYP: Found a hexagonal cell.
 ALAT       =     3.3190066245
 C/A-ratio  =    15.0647484797

  Lattice vectors:

 A1 = (   3.3190066245,   0.0000000000,   0.0000000000)
 A2 = (  -1.6595033122,   2.8743440521,   0.0000000000)
 A3 = (   0.0000000000,   0.0000000000,  50.0000000000)

Analysis of symmetry for initial positions (statically):
 Subroutine PRICEL returns:
 Original cell was already a primitive cell.

 Routine SETGRP: Setting up the symmetry group for a
 hexagonal supercell.

 Subroutine GETGRP returns: Found 12 space group operations
 (whereof  4 operations were pure point group operations)
 out of a pool of 24 trial point group operations.

The static configuration has the point symmetry C_2h.
 The point group associated with its full space group is D_3d.

Analysis of symmetry for dynamics (positions and initial velocities):
 Subroutine PRICEL returns:
 Original cell was already a primitive cell.

[...]

The dynamic configuration has the point symmetry C_2h.
 The point group associated with its full space group is D_3d.

 Subroutine INISYM returns: Found 12 space group operations
 (whereof  4 operations are pure point group operations),
 and found     1 'primitive' translations

 KPOINTS: KPOINTS created by Atomic Simulation Env

Automatic generation of k-mesh.
Space group operators:
 irot       det(A)        alpha          n_x          n_y          n_z        tau_x        tau_y        tau_z
    1     1.000000     0.000000     1.000000     0.000000     0.000000     0.000000     0.000000     0.000000
    2    -1.000000     0.000000     1.000000     0.000000     0.000000     0.000000     0.000000     0.000000
    3     1.000000   180.000000     1.000000     0.000000     0.000000     0.000000     0.000000     0.000000
    4    -1.000000   180.000000     1.000000     0.000000     0.000000     0.000000     0.000000     0.000000
    5     1.000000   120.000000     0.000000     0.000000    -1.000000     0.500000     0.500000     0.000000
    6    -1.000000   120.000000     0.000000     0.000000    -1.000000     0.500000     0.500000     0.000000
    7     1.000000   120.000000     0.000000     0.000000     1.000000     0.000000     0.500000     0.000000
    8    -1.000000   120.000000     0.000000     0.000000     1.000000     0.000000     0.500000     0.000000
    9     1.000000   180.000000     0.500000    -0.866025     0.000000    -0.000000     0.500000     0.000000
   10    -1.000000   180.000000     0.500000    -0.866025     0.000000    -0.000000     0.500000     0.000000
   11     1.000000   180.000000    -0.500000    -0.866025     0.000000     0.500000     0.500000     0.000000
   12    -1.000000   180.000000    -0.500000    -0.866025     0.000000     0.500000     0.500000     0.000000

 Subroutine IBZKPT returns following result:

 Found     37 irreducible k-points:

 Following reciprocal coordinates:
            Coordinates               Weight
  0.000000  0.000000  0.000000      1.000000
  0.055556  0.000000  0.000000      6.000000
  0.111111  0.000000  0.000000      6.000000
  0.166667  0.000000  0.000000      6.000000
  0.222222  0.000000  0.000000      6.000000
  0.277778  0.000000  0.000000      6.000000
  0.333333  0.000000  0.000000      6.000000
  0.388889  0.000000  0.000000      6.000000
  0.444444  0.000000  0.000000      6.000000
  0.500000  0.000000  0.000000      3.000000
  0.055556  0.055556  0.000000      6.000000
  0.111111  0.055556  0.000000     12.000000
  0.166667  0.055556  0.000000     12.000000
  0.222222  0.055556  0.000000     12.000000
  0.277778  0.055556  0.000000     12.000000
  0.333333  0.055556  0.000000     12.000000
  0.388889  0.055556  0.000000     12.000000
  0.444444  0.055556  0.000000     12.000000
  0.111111  0.111111  0.000000      6.000000
  0.166667  0.111111  0.000000     12.000000
  0.222222  0.111111  0.000000     12.000000
  0.277778  0.111111  0.000000     12.000000
  0.333333  0.111111  0.000000     12.000000
  0.388889  0.111111  0.000000     12.000000
  0.444444  0.111111  0.000000      6.000000
  0.166667  0.166667  0.000000      6.000000
  0.222222  0.166667  0.000000     12.000000
  0.277778  0.166667  0.000000     12.000000
  0.333333  0.166667  0.000000     12.000000
  0.388889  0.166667  0.000000     12.000000
  0.222222  0.222222  0.000000      6.000000
  0.277778  0.222222  0.000000     12.000000
  0.333333  0.222222  0.000000     12.000000
  0.388889  0.222222  0.000000      6.000000
  0.277778  0.277778  0.000000      6.000000
  0.333333  0.277778  0.000000     12.000000
  0.333333  0.333333  0.000000      2.000000

 Following cartesian coordinates:
            Coordinates               Weight
  0.000000  0.000000  0.000000      1.000000
  0.016739  0.009664  0.000000      6.000000
  0.033477  0.019328  0.000000      6.000000
  0.050216  0.028992  0.000000      6.000000
  0.066954  0.038656  0.000000      6.000000
  0.083693  0.048320  0.000000      6.000000
  0.100432  0.057984  0.000000      6.000000
  0.117170  0.067648  0.000000      6.000000
  0.133909  0.077312  0.000000      6.000000
  0.150647  0.086976  0.000000      3.000000
  0.016739  0.028992  0.000000      6.000000
  0.033477  0.038656  0.000000     12.000000
  0.050216  0.048320  0.000000     12.000000
  0.066954  0.057984  0.000000     12.000000
  0.083693  0.067648  0.000000     12.000000
  0.100432  0.077312  0.000000     12.000000
  0.117170  0.086976  0.000000     12.000000
  0.133909  0.096640  0.000000     12.000000
  0.033477  0.057984  0.000000      6.000000
  0.050216  0.067648  0.000000     12.000000
  0.066954  0.077312  0.000000     12.000000
  0.083693  0.086976  0.000000     12.000000
  0.100432  0.096640  0.000000     12.000000
  0.117170  0.106304  0.000000     12.000000
  0.133909  0.115968  0.000000      6.000000
  0.050216  0.086976  0.000000      6.000000
  0.066954  0.096640  0.000000     12.000000
  0.083693  0.106304  0.000000     12.000000
  0.100432  0.115968  0.000000     12.000000
  0.117170  0.125633  0.000000     12.000000
  0.066954  0.115968  0.000000      6.000000
  0.083693  0.125633  0.000000     12.000000
  0.100432  0.135297  0.000000     12.000000
  0.117170  0.144961  0.000000      6.000000
  0.083693  0.144961  0.000000      6.000000
  0.100432  0.154625  0.000000     12.000000
  0.100432  0.173953  0.000000      2.000000

 TETIRR: Found    169 inequivalent tetrahedra from     1944

 Subroutine IBZKPT_HF returns following result:

 Found    324 k-points in 1st BZ
 the following    324 k-points will be used (e.g. in the exchange kernel)
 Following reciprocal coordinates:   # in IRBZ
  0.000000  0.000000  0.000000    0.00308642   1 t-inv F
  0.055556  0.000000  0.000000    0.00308642   2 t-inv F
  0.111111  0.000000  0.000000    0.00308642   3 t-inv F
  0.166667  0.000000  0.000000    0.00308642   4 t-inv F
  0.222222  0.000000  0.000000    0.00308642   5 t-inv F
  0.277778  0.000000  0.000000    0.00308642   6 t-inv F
  0.333333  0.000000  0.000000    0.00308642   7 t-inv F
  0.388889  0.000000  0.000000    0.00308642   8 t-inv F
  0.444444  0.000000  0.000000    0.00308642   9 t-inv F
  0.500000  0.000000  0.000000    0.00308642  10 t-inv F
  0.055556  0.055556  0.000000    0.00308642  11 t-inv F
  0.111111  0.055556  0.000000    0.00308642  12 t-inv F
  0.166667  0.055556  0.000000    0.00308642  13 t-inv F
  0.222222  0.055556  0.000000    0.00308642  14 t-inv F
  0.277778  0.055556  0.000000    0.00308642  15 t-inv F
  0.333333  0.055556  0.000000    0.00308642  16 t-inv F
  0.388889  0.055556  0.000000    0.00308642  17 t-inv F
  0.444444  0.055556  0.000000    0.00308642  18 t-inv F
  0.111111  0.111111  0.000000    0.00308642  19 t-inv F
  0.166667  0.111111  0.000000    0.00308642  20 t-inv F
  0.222222  0.111111  0.000000    0.00308642  21 t-inv F
  0.277778  0.111111  0.000000    0.00308642  22 t-inv F
  0.333333  0.111111  0.000000    0.00308642  23 t-inv F
  0.388889  0.111111  0.000000    0.00308642  24 t-inv F
  0.444444  0.111111  0.000000    0.00308642  25 t-inv F
  0.166667  0.166667  0.000000    0.00308642  26 t-inv F
  0.222222  0.166667  0.000000    0.00308642  27 t-inv F
  0.277778  0.166667  0.000000    0.00308642  28 t-inv F
  0.333333  0.166667  0.000000    0.00308642  29 t-inv F
  0.388889  0.166667  0.000000    0.00308642  30 t-inv F
  0.222222  0.222222  0.000000    0.00308642  31 t-inv F
  0.277778  0.222222  0.000000    0.00308642  32 t-inv F
  0.333333  0.222222  0.000000    0.00308642  33 t-inv F
  0.388889  0.222222  0.000000    0.00308642  34 t-inv F
  0.277778  0.277778  0.000000    0.00308642  35 t-inv F
  0.333333  0.277778  0.000000    0.00308642  36 t-inv F
  0.333333  0.333333  0.000000    0.00308642  37 t-inv F
 -0.055556 -0.000000 -0.000000    0.00308642   2 t-inv F
  0.055556 -0.055556 -0.000000    0.00308642   2 t-inv F
 -0.055556  0.055556  0.000000    0.00308642   2 t-inv F
  0.000000 -0.055556  0.000000    0.00308642   2 t-inv F
 -0.000000  0.055556 -0.000000    0.00308642   2 t-inv F
 -0.111111 -0.000000 -0.000000    0.00308642   3 t-inv F
  0.111111 -0.111111 -0.000000    0.00308642   3 t-inv F
 -0.111111  0.111111  0.000000    0.00308642   3 t-inv F
  0.000000 -0.111111  0.000000    0.00308642   3 t-inv F
 -0.000000  0.111111 -0.000000    0.00308642   3 t-inv F
 -0.166667 -0.000000 -0.000000    0.00308642   4 t-inv F
  0.166667 -0.166667 -0.000000    0.00308642   4 t-inv F
 -0.166667  0.166667  0.000000    0.00308642   4 t-inv F
  0.000000 -0.166667  0.000000    0.00308642   4 t-inv F
[...]

  length of vectors
     3.319006624  3.319006624 50.000000000     0.347905464  0.347905464  0.020000000

 FORCES acting on ions
    electron-ion (+dipol)            ewald-force                    non-local-force                 convergence-correction
   0.124E-06 0.568E-07 0.498E+04   0.104E-10 -.600E-11 -.498E+04   -.564E-17 -.434E-17 0.154E-01   0.418E-09 -.241E-09 -.221E-05
   0.432E-07 0.695E-07 0.166E+04   -.102E-10 0.605E-11 -.166E+04   0.260E-17 0.173E-17 -.975E-03   -.399E-09 0.231E-09 -.467E-05
   -.430E-07 -.698E-07 -.166E+04   0.103E-10 -.612E-11 0.166E+04   -.260E-17 0.000E+00 0.975E-03   0.399E-09 -.231E-09 0.467E-05
   -.124E-06 -.571E-07 -.498E+04   -.104E-10 0.586E-11 0.498E+04   0.911E-17 0.260E-17 -.154E-01   -.418E-09 0.241E-09 0.221E-05
   -.820E-07 0.745E-07 0.145E+04   -.530E-11 0.305E-11 -.145E+04   0.260E-17 -.347E-17 -.262E+01   -.278E-11 0.161E-11 -.221E-05
   0.989E-07 0.337E-06 0.282E+04   -.519E-11 0.298E-11 -.282E+04   -.304E-17 0.347E-17 0.259E+01   -.386E-11 0.222E-11 0.496E-07
   0.141E-07 -.741E-07 0.253E+02   0.522E-11 -.311E-11 -.228E+02   0.434E-17 -.867E-17 -.261E+01   -.618E-12 0.361E-12 -.141E-05
   0.825E-07 0.107E-06 0.140E+04   0.526E-11 -.311E-11 -.140E+04   -.867E-18 0.347E-17 0.261E+01   -.799E-12 0.453E-12 -.107E-05
   -.825E-07 -.107E-06 -.140E+04   -.527E-11 0.312E-11 0.140E+04   0.000E+00 0.000E+00 -.261E+01   0.797E-12 -.454E-12 0.107E-05
   -.140E-07 0.741E-07 -.253E+02   -.523E-11 0.310E-11 0.228E+02   0.260E-17 0.520E-17 0.261E+01   0.618E-12 -.362E-12 0.141E-05
   -.989E-07 -.337E-06 -.282E+04   0.520E-11 -.295E-11 0.282E+04   -.737E-17 -.694E-17 -.259E+01   0.386E-11 -.222E-11 -.496E-07
   0.820E-07 -.745E-07 -.145E+04   0.530E-11 -.302E-11 0.145E+04   -.173E-17 -.694E-17 0.262E+01   0.278E-11 -.161E-11 0.221E-05
   0.400E-09 -.615E-09 0.211E-09   0.126E-12 -.162E-12 -.909E-12   0.000E+00 -.139E-16 -.444E-15   0.667E-14 0.543E-14 0.379E-11

 POSITION                                       TOTAL-FORCE (eV/Angst)
     -0.00000      0.95811     15.26500        -0.000000      0.000000      0.044557
      1.65950      1.91623     21.75500        -0.000000      0.000000      0.000486
     -0.00000      0.95811     28.24500         0.000000     -0.000000     -0.000486
      1.65950      1.91623     34.73500         0.000000     -0.000000     -0.044557
      1.65950      1.91623     16.94428         0.000000     -0.000000     -0.102738
      1.65950      1.91623     13.58572        -0.000000      0.000000      0.055173
     -0.00000      0.95811     23.43428         0.000000      0.000000     -0.115912
     -0.00000      0.95811     20.07572         0.000000      0.000000      0.117261
      1.65950      1.91623     29.92428         0.000000      0.000000     -0.117261
      1.65950      1.91623     26.56572         0.000000      0.000000      0.115912
     -0.00000      0.95811     36.41428        -0.000000     -0.000000     -0.055173
     -0.00000      0.95811     33.05572        -0.000000      0.000000      0.102738
    total drift:                                0.000000     -0.000000      0.000000

  FREE ENERGIE OF THE ION-ELECTRON SYSTEM (eV)
  free  energy   TOTEN  =       -97.95690791 eV

  energy  without entropy=      -97.95690791  energy(sigma->0) =      -97.95690791

 Linear response reoptimize wavefunctions
 Linear response G [H, r] |phi>, progress :
  Direction:   1

[...]

  free energy    TOTEN  =      -489.73911475 eV

[...]

 Linear response G [H, r] |phi>, progress :
  Direction:   2

[...]

 Linear response G [H, r] |phi>, progress :
  Direction:   3

[...]

  free energy    TOTEN  =      -481.90234701 eV

[...]

 Linear response to external field (no local field effect), progress :
  Direction:   1
  LATTYP: Found a hexagonal cell.
 ALAT       =     3.3190066245
 C/A-ratio  =    15.0647484797

[...]

The dynamic configuration has the point symmetry C_2 .

[...]

 Free energy of the ion-electron system (eV)
  -Hartree energ DENC   =         0.00000000
  -V(xc)+E(xc)   XCENC  =         0.00000000
  PAW double counting   =         0.00000000        0.00000000
  entropy T*S    EENTRO =         0.00000000
  eigenvalues    EBANDS =        -8.47411310
  free energy    TOTEN  =        -8.47411310 eV

  energy without entropy =       -8.47411310

[...]

 change of polarisation eV/A/(eV/A) component  1 :    20.946    -2.213    -0.076
 dielectric tensor                  component  1 :     8.946    -0.839    -0.029

[...]

The dynamic configuration has the point symmetry C_1h.

[...]

 Linear response to external field (no local field effect), progress :
  Direction:   3
  LATTYP: Found a hexagonal cell.
 ALAT       =     3.3190066245
 C/A-ratio  =    15.0647484797

[...]

The dynamic configuration has the point symmetry C_1h.
 The point group associated with its full space group is C_3v.

[...]

 HEAD OF MICROSCOPIC STATIC DIELECTRIC TENSOR (INDEPENDENT PARTICLE, excluding Hartree and local field effects)
           8.798240     0.000000     0.000000
          -0.000000     8.798240     0.000000
           0.000000     0.000000     5.794233

 Linear response to external field, progress :
  Direction:   1
  LATTYP: Found a hexagonal cell.
 ALAT       =     3.3190066245
 C/A-ratio  =    15.0647484797

[...]

The dynamic configuration has the point symmetry C_2 .

[...]

  Parameters of vdW forcefield:
            C6ts              R0ts           ALPHAts        RELVOL
            (au)              (au)            (au)
   W         896.449          4.120         73.045          1.028
   W         902.595          4.125         73.295          1.032
   W         902.595          4.125         73.295          1.032
   W         896.449          4.120         73.045          1.028
   Se        213.931          4.057         25.233          1.009
   Se        209.414          4.042         24.965          0.999
   Se        213.940          4.057         25.233          1.009
   Se        213.925          4.057         25.232          1.009
   Se        213.925          4.057         25.232          1.009
   Se        213.940          4.057         25.233          1.009
   Se        209.414          4.042         24.965          0.999
   Se        213.931          4.057         25.233          1.009
  Edisp (eV):   -3.37267

[...]

 PIEZOELECTRIC TENSOR FIELD DIRECTION 1  (e Angst)
    -0.00665  0.00000  0.00000           ( -0.00038  0.00000  0.00000)
     0.00000  0.00934  0.00025           (  0.00000  0.00018  0.00000)
     0.00000  0.00018 -0.00097           (  0.00000  0.00000 -0.00009)

 PIEZOELECTRIC TENSOR FIELD DIRECTION 1  (C/m^2)
    -0.00022  0.00000  0.00000
     0.00000  0.00031  0.00001
     0.00000  0.00001 -0.00003

      POSITION         DIRECTION 1           BORN EFFECTIVE CHARGE    (rigid.aug.   ionic)
     -0.00000      0.95811     15.26500    -1.14378 -0.00021  0.00002 (  1.95585 14.00000)
      1.65950      1.91623     21.75500    -1.14991  0.00017  0.00000 (  1.95582 14.00000)
     -0.00000      0.95811     28.24500    -1.14991 -0.00017 -0.00000 (  1.95582 14.00000)
      1.65950      1.91623     34.73500    -1.14378  0.00021 -0.00002 (  1.95585 14.00000)
      1.65950      1.91623     16.94428     0.58430 -0.00164  0.00013 (  1.12261  6.00000)
      1.65950      1.91623     13.58572     0.59216 -0.00158 -0.00007 (  1.12106  6.00000)
     -0.00000      0.95811     23.43428     0.59138  0.00167  0.00014 (  1.12267  6.00000)
     -0.00000      0.95811     20.07572     0.59204  0.00168 -0.00015 (  1.12265  6.00000)
      1.65950      1.91623     29.92428     0.59204 -0.00168  0.00015 (  1.12265  6.00000)
      1.65950      1.91623     26.56572     0.59138 -0.00167 -0.00014 (  1.12267  6.00000)
     -0.00000      0.95811     36.41428     0.59216  0.00158  0.00007 (  1.12106  6.00000)
     -0.00000      0.95811     33.05572     0.58430  0.00164 -0.00013 (  1.12261  6.00000)
    total drift (improves with k-points):   0.13239  0.00000  0.00000

[...]

The dynamic configuration has the point symmetry C_1h.

[...]

 Linear response to external field, progress :
  Direction:   3
  LATTYP: Found a hexagonal cell.
 ALAT       =     3.3190066245
 C/A-ratio  =    15.0647484797

[...]

The dynamic configuration has the point symmetry C_1h.
 The point group associated with its full space group is C_3v.

[...]

----------------------------------------- Iteration    3(  23)  ---------------------------------------

 Broyden mixing:
  rms(total) = 0.59866E-06    rms(broyden)= 0.59863E-06
  rms(prec ) = 0.85686E-06
  weight for this iteration     100.00

 eigenvalues of (default mixing * dielectric matrix)
  average eigenvalue GAMMA=   2.2909
  8.9376  6.6909  4.3458  4.1532  2.9905  2.9905  2.2438  2.2438  1.8017  1.8017
  1.5390  0.9358  0.9358  0.9974  0.9974  0.9572  0.7440  0.8263  0.6477  0.6665
  0.6626

 Free energy of the ion-electron system (eV)
  -Hartree energ DENC   =        -0.83688403
  -V(xc)+E(xc)   XCENC  =         0.01455765
  PAW double counting   =         0.03885129       -0.03856825
  entropy T*S    EENTRO =         0.00000000
  eigenvalues    EBANDS =        -0.26884749
  free energy    TOTEN  =        -1.09089084 eV

  energy without entropy =       -1.09089084

------------------------ aborting loop because EDIFF is reached ----------------------------------------

 change of polarisation eV/A/(eV/A) component  3 :    -0.006     0.001     2.143
 dielectric tensor                  component  3 :    -0.002     0.001     1.813

[...]

  Hirshfeld charges:
            ion         q(e)
      1     W           0.285
      2     W           0.284
      3     W           0.284
      4     W           0.285
      5     Se         -0.142
      6     Se         -0.143
      7     Se         -0.142
      8     Se         -0.142
      9     Se         -0.142
     10     Se         -0.142
     11     Se         -0.143
     12     Se         -0.142

  Tkatchenko/Scheffler method for vdW energy calculation

  Parameters of vdW forcefield:
            C6ts              R0ts           ALPHAts        RELVOL
            (au)              (au)            (au)
   W         896.449          4.120         73.045          1.028
   W         902.595          4.125         73.295          1.032
   W         902.595          4.125         73.295          1.032
   W         896.449          4.120         73.045          1.028
   Se        213.931          4.057         25.233          1.009
   Se        209.414          4.042         24.965          0.999
   Se        213.939          4.057         25.233          1.009
   Se        213.925          4.057         25.232          1.009
   Se        213.925          4.057         25.232          1.009
   Se        213.940          4.057         25.233          1.009
   Se        209.414          4.042         24.965          0.999
   Se        213.932          4.057         25.233          1.009
  Edisp (eV):   -3.37267

 PIEZOELECTRIC TENSOR FIELD DIRECTION 3  (e Angst)
    -0.01604  0.00000  0.00000           ( -0.00000 -0.00000  0.00000)
     0.00000 -0.01604  0.00000           ( -0.00000 -0.00000 -0.00000)
     0.00000 -0.00000 -0.04180           (  0.00000 -0.00000  0.00000)

 PIEZOELECTRIC TENSOR FIELD DIRECTION 3  (C/m^2)
    -0.00054  0.00000  0.00000
     0.00000 -0.00054  0.00000
     0.00000 -0.00000 -0.00140

      POSITION         DIRECTION 3           BORN EFFECTIVE CHARGE    (rigid.aug.   ionic)
     -0.00000      0.95811     15.26500     0.00000  0.00000-32.44694 (  1.95585 14.00000)
      1.65950      1.91623     21.75500    -0.00000  0.00000 -4.34441 (  1.95582 14.00000)
     -0.00000      0.95811     28.24500    -0.00000 -0.00000 -4.34195 (  1.95582 14.00000)
      1.65950      1.91623     34.73500    -0.00000 -0.00000-32.48195 (  1.95585 14.00000)
      1.65950      1.91623     16.94428    -0.00000  0.00000 -1.13294 (  1.12261  6.00000)
      1.65950      1.91623     13.58572    -0.00000  0.00000  2.81722 (  1.12106  6.00000)
     -0.00000      0.95811     23.43428    -0.00000  0.00000  0.22029 (  1.12267  6.00000)
     -0.00000      0.95811     20.07572    -0.00000  0.00000  0.54761 (  1.12265  6.00000)
      1.65950      1.91623     29.92428    -0.00000  0.00000  0.66627 (  1.12265  6.00000)
      1.65950      1.91623     26.56572    -0.00000 -0.00000  0.27207 (  1.12267  6.00000)
     -0.00000      0.95811     36.41428    -0.00000  0.00000  2.75132 (  1.12106  6.00000)
     -0.00000      0.95811     33.05572     0.00000  0.00000 -1.28960 (  1.12261  6.00000)
    total drift (improves with k-points):  -0.00000  0.00000-68.76300

[...]

 MACROSCOPIC STATIC DIELECTRIC TENSOR (including local field effects in DFT)
           8.461208    -0.000000     0.000000
          -0.000000     8.461208     0.000000
           0.000000    -0.000000     1.813013

  LATTYP: Found a hexagonal cell.
 ALAT       =     3.3190066245
 C/A-ratio  =    15.0647484797

  Lattice vectors:

 A1 = (   3.3190066245,   0.0000000000,   0.0000000000)
 A2 = (  -1.6595033122,   2.8743440521,   0.0000000000)
 A3 = (   0.0000000000,   0.0000000000,  50.0000000000)

Analysis of symmetry for initial positions (statically):
 Subroutine PRICEL returns:
 Original cell was already a primitive cell.

[...]

The static configuration has the point symmetry C_2h.
 The point group associated with its full space group is D_3d.

Analysis of symmetry for dynamics (positions and initial velocities):
 Subroutine PRICEL returns:
 Original cell was already a primitive cell.

 Routine SETGRP: Setting up the symmetry group for a
 hexagonal supercell.

 Subroutine GETGRP returns: Found 12 space group operations
 (whereof  4 operations were pure point group operations)
 out of a pool of 24 trial point group operations.

The dynamic configuration has the point symmetry C_2h.
 The point group associated with its full space group is D_3d.

 Subroutine INISYM returns: Found 12 space group operations
 (whereof  4 operations are pure point group operations),
 and found     1 'primitive' translations

 MACROSCOPIC STATIC DIELECTRIC TENSOR (including local field effects in DFT)
           8.461208    -0.000000     0.000000
          -0.000000     8.461208     0.000000
           0.000000    -0.000000     1.813013

 PIEZOELECTRIC TENSOR  for field in x, y, z        (e  Angst)
          XX          YY          ZZ          XY          YZ          ZX
  x    -0.00665     0.00934    -0.00097     0.00000     0.00018     0.00000
  y    -0.01034     0.01674     0.00279     0.00000     0.00026     0.00000
  z    -0.01604    -0.01604    -0.04180     0.00000    -0.00000     0.00000

 PIEZOELECTRIC TENSOR  for field in x, y, z        (C/m^2)
          XX          YY          ZZ          XY          YZ          ZX
  x     0.00000     0.00000     0.00000     0.00000     0.00000     0.00000
  y     0.00000     0.00000     0.00000     0.00000     0.00000     0.00000
  z     0.00000     0.00000     0.00000     0.00000     0.00000     0.00000

 BORN EFFECTIVE CHARGES (in e, cummulative output)
 ion    1
    1    -1.14378    -0.00021     0.00002
    2     0.00000    -1.14448    -0.00003
    3     0.00000     0.00000   -32.44694
 ion    2
    1    -1.14991     0.00017     0.00000
    2     0.00000    -1.14915     0.00000
    3    -0.00000     0.00000    -4.34441
 ion    3
    1    -1.14991    -0.00017    -0.00000
    2     0.00000    -1.15071     0.00001
    3    -0.00000    -0.00000    -4.34195
 ion    4
    1    -1.14378     0.00021    -0.00002
    2     0.00000    -1.14307     0.00002
    3    -0.00000    -0.00000   -32.48195
 ion    5
    1     0.58430    -0.00164     0.00013
    2    -0.00000     0.58472     0.00104
    3    -0.00000     0.00000    -1.13294
 ion    6
    1     0.59216    -0.00158    -0.00007
    2    -0.00000     0.59255    -0.00065
    3    -0.00000     0.00000     2.81722
 ion    7
    1     0.59138     0.00167     0.00014
    2    -0.00000     0.59096     0.00102
    3    -0.00000     0.00000     0.22029
 ion    8
    1     0.59204     0.00168    -0.00015
    2    -0.00000     0.59164    -0.00102
    3    -0.00000     0.00000     0.54761
 ion    9
    1     0.59204    -0.00168     0.00015
    2     0.00000     0.59244     0.00103
    3    -0.00000     0.00000     0.66627
 ion   10
    1     0.59138    -0.00167    -0.00014
    2    -0.00000     0.59181    -0.00103
    3    -0.00000    -0.00000     0.27207
 ion   11
    1     0.59216     0.00158     0.00007
    2     0.00000     0.59179     0.00065
    3    -0.00000     0.00000     2.75132
 ion   12
    1     0.58430     0.00164    -0.00013
    2    -0.00000     0.58390    -0.00103
    3     0.00000     0.00000    -1.28960

 writing wavefunctions
 BZINTS: Fermi energy:  1.061358;104.000000 electrons
         Band energy:***********;  BLOECHL correction:  0.000000