 vasp.5.4.1 24Jun15 (build Apr 13 2016 13:07:19) complex

 executed on           IFC91_ompi date 2019.09.14  03:09:06

 INCAR:
 POTCAR:    PAW_PBE W_sv_GW 23Mar2010
 POTCAR:    PAW_PBE Te_GW 22Mar2012

 POTCAR:    PAW_PBE W_sv_GW 23Mar2010
   VRHFIN =W: 5p6s5d

   TITEL  = PAW_PBE W_sv_GW 23Mar2010
   POMASS =  183.850; ZVAL   =   14.000    mass and valenz
   ENMAX  =  317.132; ENMIN  =  237.849 eV

 POTCAR:    PAW_PBE Te_GW 22Mar2012
   VRHFIN =Te: s2p4

   TITEL  = PAW_PBE Te_GW 22Mar2012
   POMASS =  127.600; ZVAL   =    6.000    mass and valenz
   ENMAX  =  174.982; ENMIN  =  131.236 eV

  PAW_PBE W_sv_GW 23Mar2010             :
  PAW_PBE Te_GW 22Mar2012               :

 POSCAR:  W Te
  positions in cartesian coordinates
 exchange correlation table for  LEXCH =        8
   RHO(1)=    0.500       N(1)  =     2000
   RHO(2)=  100.500       N(2)  =     4000

 ion  position               nearest neighbor table
   1  0.167  0.333  0.288-   5 2.74   5 2.74   5 2.74   6 2.74   6 2.74   6 2.74
   2  0.833  0.667  0.429-   7 2.74   8 2.74   7 2.74   8 2.74   7 2.74   8 2.74
   3  0.167  0.333  0.571-   9 2.74  10 2.74   9 2.74  10 2.74   9 2.74  10 2.74
   4  0.833  0.667  0.712-  12 2.74  12 2.74  12 2.74  11 2.74  11 2.74  11 2.74
   5  0.833  0.667  0.324-   1 2.74   1 2.74   1 2.74   6 3.62
   6  0.833  0.667  0.252-   1 2.74   1 2.74   1 2.74   5 3.62
   7  0.167  0.333  0.466-   2 2.74   2 2.74   2 2.74   8 3.62
   8  0.167  0.333  0.393-   2 2.74   2 2.74   2 2.74   7 3.62
   9  0.833  0.667  0.607-   3 2.74   3 2.74   3 2.74  10 3.62
  10  0.833  0.667  0.534-   3 2.74   3 2.74   3 2.74   9 3.62
  11  0.167  0.333  0.748-   4 2.74   4 2.74   4 2.74  12 3.62
  12  0.167  0.333  0.676-   4 2.74   4 2.74   4 2.74  11 3.62

  LATTYP: Found a hexagonal cell.
 ALAT       =     3.5500762221
 C/A-ratio  =    14.0842046402

  Lattice vectors:

 A1 = (   3.5500762221,   0.0000000000,   0.0000000000)
 A2 = (  -1.7750381110,   3.0744561937,   0.0000000000)
 A3 = (   0.0000000000,   0.0000000000,  50.0000000000)

Analysis of symmetry for initial positions (statically):
 Subroutine PRICEL returns:
 Original cell was already a primitive cell.

 Routine SETGRP: Setting up the symmetry group for a
 hexagonal supercell.

 Subroutine GETGRP returns: Found 12 space group operations
 (whereof  4 operations were pure point group operations)
 out of a pool of 24 trial point group operations.

The static configuration has the point symmetry C_2h.
 The point group associated with its full space group is D_3d.

Analysis of symmetry for dynamics (positions and initial velocities):
 Subroutine PRICEL returns:
 Original cell was already a primitive cell.

[...]

The dynamic configuration has the point symmetry C_2h.
 The point group associated with its full space group is D_3d.

 Subroutine INISYM returns: Found 12 space group operations
 (whereof  4 operations are pure point group operations),
 and found     1 'primitive' translations

 KPOINTS: KPOINTS created by Atomic Simulation Env

Automatic generation of k-mesh.
Space group operators:
 irot       det(A)        alpha          n_x          n_y          n_z        tau_x        tau_y        tau_z
    1     1.000000     0.000001     1.000000     0.000000     0.000000     0.000000     0.000000     0.000000
    2    -1.000000     0.000001     1.000000     0.000000     0.000000     0.000000     0.000000     0.000000
    3     1.000000   179.999999     1.000000     0.000000     0.000000     0.000000     0.000000     0.000000
    4    -1.000000   179.999999     1.000000     0.000000     0.000000     0.000000     0.000000     0.000000
    5     1.000000   120.000000     0.000000     0.000000    -1.000000     0.500000     0.500000     0.000000
    6    -1.000000   120.000000     0.000000     0.000000    -1.000000     0.500000     0.500000     0.000000
    7     1.000000   120.000000     0.000000     0.000000     1.000000     0.000000     0.500000     0.000000
    8    -1.000000   120.000000     0.000000     0.000000     1.000000     0.000000     0.500000     0.000000
    9     1.000000   180.000000     0.500000    -0.866025     0.000000     0.000000     0.500000     0.000000
   10    -1.000000   180.000000     0.500000    -0.866025     0.000000     0.000000     0.500000     0.000000
   11     1.000000   180.000000    -0.500000    -0.866025     0.000000     0.500000     0.500000     0.000000
   12    -1.000000   180.000000    -0.500000    -0.866025     0.000000     0.500000     0.500000     0.000000

 Subroutine IBZKPT returns following result:

 Found     37 irreducible k-points:

 Following reciprocal coordinates:
            Coordinates               Weight
  0.000000  0.000000  0.000000      1.000000
  0.055556  0.000000  0.000000      6.000000
  0.111111  0.000000  0.000000      6.000000
  0.166667  0.000000  0.000000      6.000000
  0.222222  0.000000  0.000000      6.000000
  0.277778  0.000000  0.000000      6.000000
  0.333333  0.000000  0.000000      6.000000
  0.388889  0.000000  0.000000      6.000000
  0.444444  0.000000  0.000000      6.000000
  0.500000  0.000000  0.000000      3.000000
  0.055556  0.055556  0.000000      6.000000
  0.111111  0.055556  0.000000     12.000000
  0.166667  0.055556  0.000000     12.000000
  0.222222  0.055556  0.000000     12.000000
  0.277778  0.055556  0.000000     12.000000
  0.333333  0.055556  0.000000     12.000000
  0.388889  0.055556  0.000000     12.000000
  0.444444  0.055556  0.000000     12.000000
  0.111111  0.111111  0.000000      6.000000
  0.166667  0.111111  0.000000     12.000000
  0.222222  0.111111  0.000000     12.000000
  0.277778  0.111111  0.000000     12.000000
  0.333333  0.111111  0.000000     12.000000
  0.388889  0.111111  0.000000     12.000000
  0.444444  0.111111  0.000000      6.000000
  0.166667  0.166667  0.000000      6.000000
  0.222222  0.166667  0.000000     12.000000
  0.277778  0.166667  0.000000     12.000000
  0.333333  0.166667  0.000000     12.000000
  0.388889  0.166667  0.000000     12.000000
  0.222222  0.222222  0.000000      6.000000
  0.277778  0.222222  0.000000     12.000000
  0.333333  0.222222  0.000000     12.000000
  0.388889  0.222222  0.000000      6.000000
  0.277778  0.277778  0.000000      6.000000
  0.333333  0.277778  0.000000     12.000000
  0.333333  0.333333  0.000000      2.000000

 Following cartesian coordinates:
            Coordinates               Weight
  0.000000  0.000000  0.000000      1.000000
  0.015649  0.009035  0.000000      6.000000
  0.031298  0.018070  0.000000      6.000000
  0.046947  0.027105  0.000000      6.000000
  0.062596  0.036140  0.000000      6.000000
  0.078246  0.045175  0.000000      6.000000
  0.093895  0.054210  0.000000      6.000000
  0.109544  0.063245  0.000000      6.000000
  0.125193  0.072280  0.000000      6.000000
  0.140842  0.081315  0.000000      3.000000
  0.015649  0.027105  0.000000      6.000000
  0.031298  0.036140  0.000000     12.000000
  0.046947  0.045175  0.000000     12.000000
  0.062596  0.054210  0.000000     12.000000
  0.078246  0.063245  0.000000     12.000000
  0.093895  0.072280  0.000000     12.000000
  0.109544  0.081315  0.000000     12.000000
  0.125193  0.090350  0.000000     12.000000
  0.031298  0.054210  0.000000      6.000000
  0.046947  0.063245  0.000000     12.000000
  0.062596  0.072280  0.000000     12.000000
  0.078246  0.081315  0.000000     12.000000
  0.093895  0.090350  0.000000     12.000000
  0.109544  0.099385  0.000000     12.000000
  0.125193  0.108420  0.000000      6.000000
  0.046947  0.081315  0.000000      6.000000
  0.062596  0.090350  0.000000     12.000000
  0.078246  0.099385  0.000000     12.000000
  0.093895  0.108420  0.000000     12.000000
  0.109544  0.117455  0.000000     12.000000
  0.062596  0.108420  0.000000      6.000000
  0.078246  0.117455  0.000000     12.000000
  0.093895  0.126490  0.000000     12.000000
  0.109544  0.135525  0.000000      6.000000
  0.078246  0.135525  0.000000      6.000000
  0.093895  0.144560  0.000000     12.000000
  0.093895  0.162630  0.000000      2.000000

 TETIRR: Found    169 inequivalent tetrahedra from     1944

 Subroutine IBZKPT_HF returns following result:

 Found    324 k-points in 1st BZ
 the following    324 k-points will be used (e.g. in the exchange kernel)
 Following reciprocal coordinates:   # in IRBZ
  0.000000  0.000000  0.000000    0.00308642   1 t-inv F
  0.055556  0.000000  0.000000    0.00308642   2 t-inv F
  0.111111  0.000000  0.000000    0.00308642   3 t-inv F
  0.166667  0.000000  0.000000    0.00308642   4 t-inv F
  0.222222  0.000000  0.000000    0.00308642   5 t-inv F
  0.277778  0.000000  0.000000    0.00308642   6 t-inv F
  0.333333  0.000000  0.000000    0.00308642   7 t-inv F
  0.388889  0.000000  0.000000    0.00308642   8 t-inv F
  0.444444  0.000000  0.000000    0.00308642   9 t-inv F
  0.500000  0.000000  0.000000    0.00308642  10 t-inv F
  0.055556  0.055556  0.000000    0.00308642  11 t-inv F
  0.111111  0.055556  0.000000    0.00308642  12 t-inv F
  0.166667  0.055556  0.000000    0.00308642  13 t-inv F
  0.222222  0.055556  0.000000    0.00308642  14 t-inv F
  0.277778  0.055556  0.000000    0.00308642  15 t-inv F
  0.333333  0.055556  0.000000    0.00308642  16 t-inv F
  0.388889  0.055556  0.000000    0.00308642  17 t-inv F
  0.444444  0.055556  0.000000    0.00308642  18 t-inv F
  0.111111  0.111111  0.000000    0.00308642  19 t-inv F
  0.166667  0.111111  0.000000    0.00308642  20 t-inv F
  0.222222  0.111111  0.000000    0.00308642  21 t-inv F
  0.277778  0.111111  0.000000    0.00308642  22 t-inv F
  0.333333  0.111111  0.000000    0.00308642  23 t-inv F
  0.388889  0.111111  0.000000    0.00308642  24 t-inv F
  0.444444  0.111111  0.000000    0.00308642  25 t-inv F
  0.166667  0.166667  0.000000    0.00308642  26 t-inv F
  0.222222  0.166667  0.000000    0.00308642  27 t-inv F
  0.277778  0.166667  0.000000    0.00308642  28 t-inv F
  0.333333  0.166667  0.000000    0.00308642  29 t-inv F
  0.388889  0.166667  0.000000    0.00308642  30 t-inv F
  0.222222  0.222222  0.000000    0.00308642  31 t-inv F
  0.277778  0.222222  0.000000    0.00308642  32 t-inv F
  0.333333  0.222222  0.000000    0.00308642  33 t-inv F
  0.388889  0.222222  0.000000    0.00308642  34 t-inv F
  0.277778  0.277778  0.000000    0.00308642  35 t-inv F
  0.333333  0.277778  0.000000    0.00308642  36 t-inv F
  0.333333  0.333333  0.000000    0.00308642  37 t-inv F
 -0.055556 -0.000000 -0.000000    0.00308642   2 t-inv F
  0.055556 -0.055556 -0.000000    0.00308642   2 t-inv F
 -0.055556  0.055556  0.000000    0.00308642   2 t-inv F
  0.000000 -0.055556  0.000000    0.00308642   2 t-inv F
 -0.000000  0.055556 -0.000000    0.00308642   2 t-inv F
 -0.111111 -0.000000 -0.000000    0.00308642   3 t-inv F
  0.111111 -0.111111 -0.000000    0.00308642   3 t-inv F
 -0.111111  0.111111  0.000000    0.00308642   3 t-inv F
  0.000000 -0.111111  0.000000    0.00308642   3 t-inv F
 -0.000000  0.111111 -0.000000    0.00308642   3 t-inv F
 -0.166667 -0.000000 -0.000000    0.00308642   4 t-inv F
  0.166667 -0.166667 -0.000000    0.00308642   4 t-inv F
 -0.166667  0.166667  0.000000    0.00308642   4 t-inv F
[...]
     3.550076222  3.550076222 50.000000000     0.325260774  0.325260774  0.020000000

 FORCES acting on ions
    electron-ion (+dipol)            ewald-force                    non-local-force                 convergence-correction
   -.667E-07 0.754E-07 0.394E+04   0.863E-11 -.500E-11 -.394E+04   -.694E-17 -.208E-16 0.530E-02   0.218E-10 -.125E-10 0.664E-06
   0.859E-07 -.449E-07 0.131E+04   -.862E-11 0.507E-11 -.131E+04   -.208E-16 0.694E-17 -.186E-03   0.294E-10 -.170E-10 0.264E-05
   -.858E-07 0.451E-07 -.131E+04   0.863E-11 -.500E-11 0.131E+04   0.139E-16 0.694E-17 0.186E-03   -.294E-10 0.171E-10 -.264E-05
   0.668E-07 -.752E-07 -.394E+04   -.862E-11 0.506E-11 0.394E+04   0.173E-16 0.694E-17 -.530E-02   -.217E-10 0.125E-10 -.664E-06
   -.211E-06 0.133E-06 0.112E+04   -.439E-11 0.255E-11 -.111E+04   -.932E-17 -.997E-17 -.520E+01   0.421E-11 -.242E-11 -.189E-05
   -.257E-06 0.618E-07 0.226E+04   -.432E-11 0.251E-11 -.226E+04   0.147E-16 -.147E-16 0.525E+01   0.364E-11 -.210E-11 0.281E-05
   0.240E-06 -.965E-07 -.760E+01   0.439E-11 -.257E-11 0.128E+02   0.542E-17 0.846E-17 -.517E+01   -.369E-11 0.213E-11 -.390E-05
   0.190E-06 -.142E-06 0.113E+04   0.439E-11 -.257E-11 -.114E+04   0.230E-16 -.121E-16 0.516E+01   -.345E-11 0.199E-11 0.515E-05
   -.190E-06 0.142E-06 -.113E+04   -.439E-11 0.256E-11 0.114E+04   -.163E-16 -.173E-17 -.516E+01   0.345E-11 -.199E-11 -.515E-05
   -.240E-06 0.966E-07 0.760E+01   -.440E-11 0.256E-11 -.128E+02   -.607E-17 -.152E-17 0.517E+01   0.369E-11 -.213E-11 0.390E-05
   0.257E-06 -.618E-07 -.226E+04   0.430E-11 -.252E-11 0.226E+04   -.117E-16 0.147E-16 -.525E+01   -.364E-11 0.210E-11 -.281E-05
   0.211E-06 -.133E-06 -.112E+04   0.438E-11 -.257E-11 0.111E+04   0.106E-16 -.108E-16 0.520E+01   -.421E-11 0.242E-11 0.189E-05
   0.225E-09 0.394E-09 0.104E-09   -.218E-13 0.642E-13 0.455E-12   0.139E-16 -.278E-16 0.000E+00   0.503E-13 0.289E-13 0.524E-11

 POSITION                                       TOTAL-FORCE (eV/Angst)
     -0.00000      1.02482     14.41000         0.000000      0.000000      0.023239
      1.77504      2.04964     21.47000        -0.000000      0.000000      0.000364
     -0.00000      1.02482     28.53000        -0.000000     -0.000000     -0.000364
      1.77504      2.04964     35.59000        -0.000000     -0.000000     -0.023239
      1.77504      2.04964     16.22196        -0.000000      0.000000     -0.082606
      1.77504      2.04964     12.59804         0.000000     -0.000000      0.052728
     -0.00000      1.02482     23.28196        -0.000000      0.000000     -0.099284
     -0.00000      1.02482     19.65804         0.000000      0.000000      0.099616
      1.77504      2.04964     30.34196         0.000000     -0.000000     -0.099616
      1.77504      2.04964     26.71804         0.000000      0.000000      0.099284
     -0.00000      1.02482     37.40196        -0.000000      0.000000     -0.052728
     -0.00000      1.02482     33.77804         0.000000     -0.000000      0.082606
    total drift:                                0.000000      0.000000      0.000000

  FREE ENERGIE OF THE ION-ELECTRON SYSTEM (eV)
  free  energy   TOTEN  =       -89.68438138 eV

  energy  without entropy=      -89.68438138  energy(sigma->0) =      -89.68438138

 Linear response reoptimize wavefunctions
 Linear response G [H, r] |phi>, progress :
  Direction:   1

[...]

  free energy    TOTEN  =      -506.88655827 eV

[...]

 Linear response G [H, r] |phi>, progress :
  Direction:   2

[...]

 Linear response G [H, r] |phi>, progress :
  Direction:   3

[...]

  free energy    TOTEN  =      -566.83476004 eV

[...]

 Linear response to external field (no local field effect), progress :
  Direction:   1
  LATTYP: Found a hexagonal cell.
 ALAT       =     3.5500762221
 C/A-ratio  =    14.0842046402

[...]

The dynamic configuration has the point symmetry C_2 .

[...]

 Free energy of the ion-electron system (eV)
  -Hartree energ DENC   =         0.00000000
  -V(xc)+E(xc)   XCENC  =         0.00000000
  PAW double counting   =         0.00000000        0.00000000
  entropy T*S    EENTRO =         0.00000000
  eigenvalues    EBANDS =       -10.03879428
  free energy    TOTEN  =       -10.03879428 eV

  energy without entropy =      -10.03879428

[...]

 change of polarisation eV/A/(eV/A) component  1 :    31.367    -1.220    -0.125
 dielectric tensor                  component  1 :    11.401    -0.404    -0.041

[...]

The dynamic configuration has the point symmetry C_1h.

[...]

 Linear response to external field (no local field effect), progress :
  Direction:   3
  LATTYP: Found a hexagonal cell.
 ALAT       =     3.5500762221
 C/A-ratio  =    14.0842046402

[...]

The dynamic configuration has the point symmetry C_1h.
 The point group associated with its full space group is C_3v.

[...]

 HEAD OF MICROSCOPIC STATIC DIELECTRIC TENSOR (INDEPENDENT PARTICLE, excluding Hartree and local field effects)
          11.396809     0.000000     0.000000
           0.000000    11.396809    -0.000000
          -0.000000     0.000000     7.213644

 Linear response to external field, progress :
  Direction:   1
  LATTYP: Found a hexagonal cell.
 ALAT       =     3.5500762221
 C/A-ratio  =    14.0842046402

[...]

The dynamic configuration has the point symmetry C_2 .

[...]

  Parameters of vdW forcefield:
            C6ts              R0ts           ALPHAts        RELVOL
            (au)              (au)            (au)
   W         919.816          4.138         73.991          1.042
   W         923.354          4.140         74.133          1.044
   W         923.354          4.140         74.133          1.044
   W         919.816          4.138         73.991          1.042
   Te        408.975          4.237         38.262          1.016
   Te        401.509          4.224         37.911          1.007
   Te        408.995          4.237         38.263          1.016
   Te        408.968          4.237         38.261          1.016
   Te        408.968          4.237         38.261          1.016
   Te        408.995          4.237         38.263          1.016
   Te        401.509          4.224         37.911          1.007
   Te        408.975          4.237         38.262          1.016
  Edisp (eV):   -3.71682

[...]

 PIEZOELECTRIC TENSOR FIELD DIRECTION 1  (e Angst)
    -0.00858  0.00000  0.00000           ( -0.00050  0.00000  0.00000)
     0.00000  0.01359  0.00044           (  0.00000  0.00018  0.00001)
     0.00000  0.00038 -0.00150           (  0.00000  0.00001 -0.00013)

 PIEZOELECTRIC TENSOR FIELD DIRECTION 1  (C/m^2)
    -0.00025  0.00000  0.00000
     0.00000  0.00040  0.00001
     0.00000  0.00001 -0.00004

      POSITION         DIRECTION 1           BORN EFFECTIVE CHARGE    (rigid.aug.   ionic)
     -0.00000      1.02482     14.41000    -2.54428 -0.00052  0.00003 (  1.94634 14.00000)
      1.77504      2.04964     21.47000    -2.54585  0.00050 -0.00000 (  1.94640 14.00000)
     -0.00000      1.02482     28.53000    -2.54585 -0.00050  0.00000 (  1.94640 14.00000)
      1.77504      2.04964     35.59000    -2.54428  0.00052 -0.00003 (  1.94634 14.00000)
      1.77504      2.04964     16.22196     1.28190 -0.00182  0.00022 (  1.18311  6.00000)
      1.77504      2.04964     12.59804     1.28011 -0.00170 -0.00010 (  1.18266  6.00000)
     -0.00000      1.02482     23.28196     1.28218  0.00183  0.00022 (  1.18311  6.00000)
     -0.00000      1.02482     19.65804     1.28365  0.00185 -0.00022 (  1.18307  6.00000)
      1.77504      2.04964     30.34196     1.28365 -0.00185  0.00022 (  1.18307  6.00000)
      1.77504      2.04964     26.71804     1.28218 -0.00183 -0.00022 (  1.18311  6.00000)
     -0.00000      1.02482     37.40196     1.28011  0.00170  0.00010 (  1.18266  6.00000)
     -0.00000      1.02482     33.77804     1.28190  0.00182 -0.00022 (  1.18311  6.00000)
    total drift (improves with k-points):   0.07544  0.00000  0.00000

[...]

The dynamic configuration has the point symmetry C_1h.

[...]

 Linear response to external field, progress :
  Direction:   3
  LATTYP: Found a hexagonal cell.
 ALAT       =     3.5500762221
 C/A-ratio  =    14.0842046402

[...]

The dynamic configuration has the point symmetry C_1h.
 The point group associated with its full space group is C_3v.

[...]

----------------------------------------- Iteration    3(  26)  ---------------------------------------

 Broyden mixing:
  rms(total) = 0.83768E-06    rms(broyden)= 0.83764E-06
  rms(prec ) = 0.86497E-06
  weight for this iteration     100.00

 eigenvalues of (default mixing * dielectric matrix)
  average eigenvalue GAMMA=   2.2768
  8.7457  8.7457  5.7686  4.2869  3.0876  3.0876  2.4154  2.4154  1.9511  1.9511
  1.5002  1.0697  1.0288  0.9718  0.9718  0.9375  0.9375  0.8500  0.7258  0.7279
  0.5930  0.6123  0.6265  0.6363

 Free energy of the ion-electron system (eV)
  -Hartree energ DENC   =        -1.21662403
  -V(xc)+E(xc)   XCENC  =         0.01918119
  PAW double counting   =         0.04091103       -0.04041254
  entropy T*S    EENTRO =         0.00000000
  eigenvalues    EBANDS =        -0.37192335
  free energy    TOTEN  =        -1.56886771 eV

  energy without entropy =       -1.56886771

------------------------ aborting loop because EDIFF is reached ----------------------------------------

 change of polarisation eV/A/(eV/A) component  3 :    -0.006     0.004     3.077
 dielectric tensor                  component  3 :    -0.002     0.001     2.020

[...]

  Hirshfeld charges:
            ion         q(e)
      1     W           0.216
      2     W           0.215
      3     W           0.215
      4     W           0.216
      5     Te         -0.108
      6     Te         -0.108
      7     Te         -0.107
      8     Te         -0.107
      9     Te         -0.107
     10     Te         -0.107
     11     Te         -0.108
     12     Te         -0.108

  Tkatchenko/Scheffler method for vdW energy calculation

  Parameters of vdW forcefield:
            C6ts              R0ts           ALPHAts        RELVOL
            (au)              (au)            (au)
   W         919.816          4.138         73.991          1.042
   W         923.354          4.140         74.133          1.044
   W         923.354          4.140         74.133          1.044
   W         919.816          4.138         73.991          1.042
   Te        408.975          4.237         38.262          1.016
   Te        401.509          4.224         37.911          1.007
   Te        408.995          4.237         38.263          1.016
   Te        408.969          4.237         38.261          1.016
   Te        408.968          4.237         38.261          1.016
   Te        408.996          4.237         38.263          1.016
   Te        401.508          4.224         37.911          1.007
   Te        408.975          4.237         38.262          1.016
  Edisp (eV):   -3.71682

 PIEZOELECTRIC TENSOR FIELD DIRECTION 3  (e Angst)
     0.24998  0.00000  0.00000           ( -0.00000  0.00000 -0.00000)
    -0.00000  0.24998  0.00000           ( -0.00000 -0.00000  0.00000)
     0.00000 -0.00000  0.81277           (  0.00000  0.00000  0.00000)

 PIEZOELECTRIC TENSOR FIELD DIRECTION 3  (C/m^2)
     0.00734  0.00000  0.00000
    -0.00000  0.00734  0.00000
     0.00000 -0.00000  0.02386

      POSITION         DIRECTION 3           BORN EFFECTIVE CHARGE    (rigid.aug.   ionic)
     -0.00000      1.02482     14.41000    -0.00000  0.00000-42.08829 (  1.94634 14.00000)
      1.77504      2.04964     21.47000     0.00000  0.00000 -6.06022 (  1.94640 14.00000)
     -0.00000      1.02482     28.53000     0.00000 -0.00000 -6.10176 (  1.94640 14.00000)
      1.77504      2.04964     35.59000     0.00000 -0.00000-41.99463 (  1.94634 14.00000)
      1.77504      2.04964     16.22196    -0.00000  0.00000 -1.54451 (  1.18311  6.00000)
      1.77504      2.04964     12.59804    -0.00000  0.00000  6.23541 (  1.18266  6.00000)
     -0.00000      1.02482     23.28196     0.00000  0.00000  0.37764 (  1.18311  6.00000)
     -0.00000      1.02482     19.65804     0.00000 -0.00000  0.16920 (  1.18307  6.00000)
      1.77504      2.04964     30.34196    -0.00000  0.00000  0.14463 (  1.18307  6.00000)
      1.77504      2.04964     26.71804    -0.00000  0.00000  0.39347 (  1.18311  6.00000)
     -0.00000      1.02482     37.40196    -0.00000 -0.00000  6.26851 (  1.18266  6.00000)
     -0.00000      1.02482     33.77804    -0.00000  0.00000 -1.51006 (  1.18311  6.00000)
    total drift (improves with k-points):  -0.00000  0.00000-85.71060

[...]

 MACROSCOPIC STATIC DIELECTRIC TENSOR (including local field effects in DFT)
          11.004026     0.000000     0.000000
          -0.000000    11.004026    -0.000000
           0.000000     0.000000     2.020209

  LATTYP: Found a hexagonal cell.
 ALAT       =     3.5500762221
 C/A-ratio  =    14.0842046402

  Lattice vectors:

 A1 = (   3.5500762221,   0.0000000000,   0.0000000000)
 A2 = (  -1.7750381110,   3.0744561937,   0.0000000000)
 A3 = (   0.0000000000,   0.0000000000,  50.0000000000)

Analysis of symmetry for initial positions (statically):
 Subroutine PRICEL returns:
 Original cell was already a primitive cell.

[...]

The static configuration has the point symmetry C_2h.
 The point group associated with its full space group is D_3d.

Analysis of symmetry for dynamics (positions and initial velocities):
 Subroutine PRICEL returns:
 Original cell was already a primitive cell.

 Routine SETGRP: Setting up the symmetry group for a
 hexagonal supercell.

 Subroutine GETGRP returns: Found 12 space group operations
 (whereof  4 operations were pure point group operations)
 out of a pool of 24 trial point group operations.

The dynamic configuration has the point symmetry C_2h.
 The point group associated with its full space group is D_3d.

 Subroutine INISYM returns: Found 12 space group operations
 (whereof  4 operations are pure point group operations),
 and found     1 'primitive' translations

 MACROSCOPIC STATIC DIELECTRIC TENSOR (including local field effects in DFT)
          11.004026     0.000000     0.000000
          -0.000000    11.004026    -0.000000
           0.000000     0.000000     2.020209

 PIEZOELECTRIC TENSOR  for field in x, y, z        (e  Angst)
          XX          YY          ZZ          XY          YZ          ZX
  x    -0.00858     0.01359    -0.00150     0.00000     0.00038     0.00000
  y    -0.01405     0.02479     0.00846     0.00000     0.00049     0.00000
  z     0.24998     0.24998     0.81277    -0.00000    -0.00000     0.00000

 PIEZOELECTRIC TENSOR  for field in x, y, z        (C/m^2)
          XX          YY          ZZ          XY          YZ          ZX
  x     0.00000     0.00000     0.00000     0.00000     0.00000     0.00000
  y     0.00000     0.00000     0.00000     0.00000     0.00000     0.00000
  z     0.00000     0.00000     0.00000     0.00000     0.00000     0.00000

 BORN EFFECTIVE CHARGES (in e, cummulative output)
 ion    1
    1    -2.54428    -0.00052     0.00003
    2    -0.00000    -2.54515    -0.00007
    3    -0.00000     0.00000   -42.08829
 ion    2
    1    -2.54585     0.00050    -0.00000
    2     0.00000    -2.54486    -0.00001
    3     0.00000     0.00000    -6.06022
 ion    3
    1    -2.54585    -0.00050     0.00000
    2    -0.00000    -2.54682     0.00000
    3     0.00000    -0.00000    -6.10176
 ion    4
    1    -2.54428     0.00052    -0.00003
    2    -0.00000    -2.54340     0.00017
    3     0.00000    -0.00000   -41.99463
 ion    5
    1     1.28190    -0.00182     0.00022
    2     0.00000     1.28235     0.00219
    3    -0.00000     0.00000    -1.54451
 ion    6
    1     1.28011    -0.00170    -0.00010
    2     0.00000     1.28051    -0.00138
    3    -0.00000     0.00000     6.23541
 ion    7
    1     1.28218     0.00183     0.00022
    2     0.00000     1.28170     0.00209
    3     0.00000     0.00000     0.37764
 ion    8
    1     1.28365     0.00185    -0.00022
    2     0.00000     1.28318    -0.00209
    3     0.00000    -0.00000     0.16920
 ion    9
    1     1.28365    -0.00185     0.00022
    2     0.00000     1.28411     0.00210
    3    -0.00000     0.00000     0.14463
 ion   10
    1     1.28218    -0.00183    -0.00022
    2     0.00000     1.28265    -0.00210
    3    -0.00000     0.00000     0.39347
 ion   11
    1     1.28011     0.00170     0.00010
    2    -0.00000     1.27970     0.00137
    3    -0.00000    -0.00000     6.26851
 ion   12
    1     1.28190     0.00182    -0.00022
    2     0.00000     1.28145    -0.00218
    3    -0.00000     0.00000    -1.51006

 writing wavefunctions
 BZINTS: Fermi energy:  2.476554;104.000000 electrons
         Band energy:***********;  BLOECHL correction:  0.000000