 vasp.5.4.1 24Jun15 (build Apr 13 2016 13:07:19) complex

 executed on           IFC91_ompi date 2019.09.13  23:43:02

 INCAR:
 POTCAR:    PAW_PBE W_sv_GW 23Mar2010
 POTCAR:    PAW_PBE Se_GW 20Mar2012

 POTCAR:    PAW_PBE W_sv_GW 23Mar2010
   VRHFIN =W: 5p6s5d

   TITEL  = PAW_PBE W_sv_GW 23Mar2010
   POMASS =  183.850; ZVAL   =   14.000    mass and valenz
   ENMAX  =  317.132; ENMIN  =  237.849 eV

 POTCAR:    PAW_PBE Se_GW 20Mar2012
   VRHFIN =Se: s2p4

   TITEL  = PAW_PBE Se_GW 20Mar2012
   POMASS =   78.960; ZVAL   =    6.000    mass and valenz
   ENMAX  =  211.555; ENMIN  =  158.666 eV

  PAW_PBE W_sv_GW 23Mar2010             :
  PAW_PBE Se_GW 20Mar2012               :

 POSCAR:  W Se
  positions in cartesian coordinates
 exchange correlation table for  LEXCH =        8
   RHO(1)=    0.500       N(1)  =     2000
   RHO(2)=  100.500       N(2)  =     4000

 ion  position               nearest neighbor table
   1  0.167  0.333  0.435-   3 2.55   4 2.55   3 2.55   4 2.55   3 2.55   4 2.55
   2  0.833  0.667  0.565-   5 2.55   6 2.55   5 2.55   6 2.55   5 2.55   6 2.55
   3  0.833  0.667  0.469-   1 2.55   1 2.55   1 2.55
   4  0.833  0.667  0.402-   1 2.55   1 2.55   1 2.55
   5  0.167  0.333  0.598-   2 2.55   2 2.55   2 2.55
   6  0.167  0.333  0.531-   2 2.55   2 2.55   2 2.55

  LATTYP: Found a hexagonal cell.
 ALAT       =     3.3190066245
 C/A-ratio  =    15.0647484797

  Lattice vectors:

 A1 = (   3.3190066245,   0.0000000000,   0.0000000000)
 A2 = (  -1.6595033122,   2.8743440521,   0.0000000000)
 A3 = (   0.0000000000,   0.0000000000,  50.0000000000)

Analysis of symmetry for initial positions (statically):
 Subroutine PRICEL returns:
 Original cell was already a primitive cell.

 Routine SETGRP: Setting up the symmetry group for a
 hexagonal supercell.

 Subroutine GETGRP returns: Found 12 space group operations
 (whereof  4 operations were pure point group operations)
 out of a pool of 24 trial point group operations.

The static configuration has the point symmetry C_2h.
 The point group associated with its full space group is D_3d.

Analysis of symmetry for dynamics (positions and initial velocities):
 Subroutine PRICEL returns:
 Original cell was already a primitive cell.

[...]

The dynamic configuration has the point symmetry C_2h.
 The point group associated with its full space group is D_3d.

 Subroutine INISYM returns: Found 12 space group operations
 (whereof  4 operations are pure point group operations),
 and found     1 'primitive' translations

 KPOINTS: KPOINTS created by Atomic Simulation Env

Automatic generation of k-mesh.
Space group operators:
 irot       det(A)        alpha          n_x          n_y          n_z        tau_x        tau_y        tau_z
    1     1.000000     0.000000     1.000000     0.000000     0.000000     0.000000     0.000000     0.000000
    2    -1.000000     0.000000     1.000000     0.000000     0.000000     0.000000     0.000000     0.000000
    3     1.000000   180.000000     1.000000     0.000000     0.000000     0.000000     0.000000     0.000000
    4    -1.000000   180.000000     1.000000     0.000000     0.000000     0.000000     0.000000     0.000000
    5     1.000000   120.000000     0.000000     0.000000    -1.000000     0.500000     0.500000     0.000000
    6    -1.000000   120.000000     0.000000     0.000000    -1.000000     0.500000     0.500000     0.000000
    7     1.000000   120.000000     0.000000     0.000000     1.000000     0.000000     0.500000     0.000000
    8    -1.000000   120.000000     0.000000     0.000000     1.000000     0.000000     0.500000     0.000000
    9     1.000000   180.000000     0.500000    -0.866025     0.000000    -0.000000     0.500000     0.000000
   10    -1.000000   180.000000     0.500000    -0.866025     0.000000    -0.000000     0.500000     0.000000
   11     1.000000   180.000000    -0.500000    -0.866025     0.000000     0.500000     0.500000     0.000000
   12    -1.000000   180.000000    -0.500000    -0.866025     0.000000     0.500000     0.500000     0.000000

 Subroutine IBZKPT returns following result:

 Found     37 irreducible k-points:

 Following reciprocal coordinates:
            Coordinates               Weight
  0.000000  0.000000  0.000000      1.000000
  0.055556  0.000000  0.000000      6.000000
  0.111111  0.000000  0.000000      6.000000
  0.166667  0.000000  0.000000      6.000000
  0.222222  0.000000  0.000000      6.000000
  0.277778  0.000000  0.000000      6.000000
  0.333333  0.000000  0.000000      6.000000
  0.388889  0.000000  0.000000      6.000000
  0.444444  0.000000  0.000000      6.000000
  0.500000  0.000000  0.000000      3.000000
  0.055556  0.055556  0.000000      6.000000
  0.111111  0.055556  0.000000     12.000000
  0.166667  0.055556  0.000000     12.000000
  0.222222  0.055556  0.000000     12.000000
  0.277778  0.055556  0.000000     12.000000
  0.333333  0.055556  0.000000     12.000000
  0.388889  0.055556  0.000000     12.000000
  0.444444  0.055556  0.000000     12.000000
  0.111111  0.111111  0.000000      6.000000
  0.166667  0.111111  0.000000     12.000000
  0.222222  0.111111  0.000000     12.000000
  0.277778  0.111111  0.000000     12.000000
  0.333333  0.111111  0.000000     12.000000
  0.388889  0.111111  0.000000     12.000000
  0.444444  0.111111  0.000000      6.000000
  0.166667  0.166667  0.000000      6.000000
  0.222222  0.166667  0.000000     12.000000
  0.277778  0.166667  0.000000     12.000000
  0.333333  0.166667  0.000000     12.000000
  0.388889  0.166667  0.000000     12.000000
  0.222222  0.222222  0.000000      6.000000
  0.277778  0.222222  0.000000     12.000000
  0.333333  0.222222  0.000000     12.000000
  0.388889  0.222222  0.000000      6.000000
  0.277778  0.277778  0.000000      6.000000
  0.333333  0.277778  0.000000     12.000000
  0.333333  0.333333  0.000000      2.000000

 Following cartesian coordinates:
            Coordinates               Weight
  0.000000  0.000000  0.000000      1.000000
  0.016739  0.009664  0.000000      6.000000
  0.033477  0.019328  0.000000      6.000000
  0.050216  0.028992  0.000000      6.000000
  0.066954  0.038656  0.000000      6.000000
  0.083693  0.048320  0.000000      6.000000
  0.100432  0.057984  0.000000      6.000000
  0.117170  0.067648  0.000000      6.000000
  0.133909  0.077312  0.000000      6.000000
  0.150647  0.086976  0.000000      3.000000
  0.016739  0.028992  0.000000      6.000000
  0.033477  0.038656  0.000000     12.000000
  0.050216  0.048320  0.000000     12.000000
  0.066954  0.057984  0.000000     12.000000
  0.083693  0.067648  0.000000     12.000000
  0.100432  0.077312  0.000000     12.000000
  0.117170  0.086976  0.000000     12.000000
  0.133909  0.096640  0.000000     12.000000
  0.033477  0.057984  0.000000      6.000000
  0.050216  0.067648  0.000000     12.000000
  0.066954  0.077312  0.000000     12.000000
  0.083693  0.086976  0.000000     12.000000
  0.100432  0.096640  0.000000     12.000000
  0.117170  0.106304  0.000000     12.000000
  0.133909  0.115968  0.000000      6.000000
  0.050216  0.086976  0.000000      6.000000
  0.066954  0.096640  0.000000     12.000000
  0.083693  0.106304  0.000000     12.000000
  0.100432  0.115968  0.000000     12.000000
  0.117170  0.125633  0.000000     12.000000
  0.066954  0.115968  0.000000      6.000000
  0.083693  0.125633  0.000000     12.000000
  0.100432  0.135297  0.000000     12.000000
  0.117170  0.144961  0.000000      6.000000
  0.083693  0.144961  0.000000      6.000000
  0.100432  0.154625  0.000000     12.000000
  0.100432  0.173953  0.000000      2.000000

 TETIRR: Found    169 inequivalent tetrahedra from     1944

 Subroutine IBZKPT_HF returns following result:

 Found    324 k-points in 1st BZ
 the following    324 k-points will be used (e.g. in the exchange kernel)
 Following reciprocal coordinates:   # in IRBZ
  0.000000  0.000000  0.000000    0.00308642   1 t-inv F
  0.055556  0.000000  0.000000    0.00308642   2 t-inv F
  0.111111  0.000000  0.000000    0.00308642   3 t-inv F
  0.166667  0.000000  0.000000    0.00308642   4 t-inv F
  0.222222  0.000000  0.000000    0.00308642   5 t-inv F
  0.277778  0.000000  0.000000    0.00308642   6 t-inv F
  0.333333  0.000000  0.000000    0.00308642   7 t-inv F
  0.388889  0.000000  0.000000    0.00308642   8 t-inv F
  0.444444  0.000000  0.000000    0.00308642   9 t-inv F
  0.500000  0.000000  0.000000    0.00308642  10 t-inv F
  0.055556  0.055556  0.000000    0.00308642  11 t-inv F
  0.111111  0.055556  0.000000    0.00308642  12 t-inv F
  0.166667  0.055556  0.000000    0.00308642  13 t-inv F
  0.222222  0.055556  0.000000    0.00308642  14 t-inv F
  0.277778  0.055556  0.000000    0.00308642  15 t-inv F
  0.333333  0.055556  0.000000    0.00308642  16 t-inv F
  0.388889  0.055556  0.000000    0.00308642  17 t-inv F
  0.444444  0.055556  0.000000    0.00308642  18 t-inv F
  0.111111  0.111111  0.000000    0.00308642  19 t-inv F
  0.166667  0.111111  0.000000    0.00308642  20 t-inv F
  0.222222  0.111111  0.000000    0.00308642  21 t-inv F
  0.277778  0.111111  0.000000    0.00308642  22 t-inv F
  0.333333  0.111111  0.000000    0.00308642  23 t-inv F
  0.388889  0.111111  0.000000    0.00308642  24 t-inv F
  0.444444  0.111111  0.000000    0.00308642  25 t-inv F
  0.166667  0.166667  0.000000    0.00308642  26 t-inv F
  0.222222  0.166667  0.000000    0.00308642  27 t-inv F
  0.277778  0.166667  0.000000    0.00308642  28 t-inv F
  0.333333  0.166667  0.000000    0.00308642  29 t-inv F
  0.388889  0.166667  0.000000    0.00308642  30 t-inv F
  0.222222  0.222222  0.000000    0.00308642  31 t-inv F
  0.277778  0.222222  0.000000    0.00308642  32 t-inv F
  0.333333  0.222222  0.000000    0.00308642  33 t-inv F
  0.388889  0.222222  0.000000    0.00308642  34 t-inv F
  0.277778  0.277778  0.000000    0.00308642  35 t-inv F
  0.333333  0.277778  0.000000    0.00308642  36 t-inv F
  0.333333  0.333333  0.000000    0.00308642  37 t-inv F
 -0.055556 -0.000000 -0.000000    0.00308642   2 t-inv F
  0.055556 -0.055556 -0.000000    0.00308642   2 t-inv F
 -0.055556  0.055556  0.000000    0.00308642   2 t-inv F
  0.000000 -0.055556  0.000000    0.00308642   2 t-inv F
 -0.000000  0.055556 -0.000000    0.00308642   2 t-inv F
 -0.111111 -0.000000 -0.000000    0.00308642   3 t-inv F
  0.111111 -0.111111 -0.000000    0.00308642   3 t-inv F
 -0.111111  0.111111  0.000000    0.00308642   3 t-inv F
  0.000000 -0.111111  0.000000    0.00308642   3 t-inv F
 -0.000000  0.111111 -0.000000    0.00308642   3 t-inv F
 -0.166667 -0.000000 -0.000000    0.00308642   4 t-inv F
  0.166667 -0.166667 -0.000000    0.00308642   4 t-inv F
 -0.166667  0.166667  0.000000    0.00308642   4 t-inv F
  0.000000 -0.166667  0.000000    0.00308642   4 t-inv F
 -0.000000  0.166667 -0.000000    0.00308642   4 t-inv F
 -0.222222 -0.000000 -0.000000    0.00308642   5 t-inv F
  0.222222 -0.222222 -0.000000    0.00308642   5 t-inv F
 -0.222222  0.222222  0.000000    0.00308642   5 t-inv F
  0.000000 -0.222222  0.000000    0.00308642   5 t-inv F
 -0.000000  0.222222 -0.000000    0.00308642   5 t-inv F
 -0.277778 -0.000000 -0.000000    0.00308642   6 t-inv F
[...]
     27      -0.6485      0.00000
     28      -0.6485      0.00000
     29       0.2866      0.00000
     30       0.8838      0.00000
     31       1.1917      0.00000
     32       1.1917      0.00000
     33       2.5303      0.00000
     34       2.5303      0.00000
     35       3.7746      0.00000
     36       3.7746      0.00000
     37       3.8021      0.00000
     38       4.6554      0.00000
     39       6.6095      0.00000
     40       6.6095      0.00000
     41       7.7022      0.00000
     42       7.7022      0.00000
     43       7.8351      0.00000
     44       8.0409      0.00000
     45       8.6776      0.00000
     46       8.6776      0.00000
     47       8.8427      0.00000
     48       8.8877      0.00000
     49       8.8878      0.00000
     50       8.9166      0.00000
     51       8.9820      0.00000
     52       9.0290      0.00000
     53       9.0290      0.00000
     54       9.0801      0.00000
     55       9.0801      0.00000
     56       9.1651      0.00000

 soft charge-density along one line, spin component           1
         0         1         2         3         4         5         6         7         8         9
 total charge-density along one line

------------------------ aborting loop because EDIFF is reached ----------------------------------------

  Hirshfeld charges:
            ion         q(e)
      1     W           0.285
      2     W           0.285
      3     Se         -0.142
      4     Se         -0.143
      5     Se         -0.143
      6     Se         -0.142

  Atomic reference data used in the T-S method for vdW correction:
            C6at              R0at           ALPHAat      REFSTATE
            (au)              (au)            (au)
   W         847.930          4.082         71.041         0
   Se        210.000          4.044         25.000         0

  Tkatchenko/Scheffler method for vdW energy calculation

  Parameters of vdW forcefield:
            C6ts              R0ts           ALPHAts        RELVOL
            (au)              (au)            (au)
   W         896.464          4.120         73.046          1.028
   W         896.464          4.120         73.046          1.028
   Se        213.916          4.056         25.232          1.009
   Se        209.413          4.042         24.965          0.999
   Se        209.413          4.042         24.965          0.999
   Se        213.916          4.056         25.232          1.009

  IVDW =  20
  VDW_RADIUS =    50.000 A
  VDW_IDAMPF =  0
  VDW_S6 =     1.000
  VDW_SR =     0.940
  VDW_D =    20.000
  LVDW_EWALD = T
  Edisp (eV):   -1.50742

  FORCE on cell =-STRESS in cart. coord.  units (eV):
  Direction    XX          YY          ZZ          XY          YZ          ZX
  Alpha Z    58.00466    58.00466    58.00466
  Ewald   61345.64459 61345.64459-64025.85415    -0.00000    -0.00000     0.00000
  Hartree 62196.74149 62196.74149-61710.29781    -0.00000    -0.00000    -0.00000
  E(xc)    -254.45112  -254.45112  -254.93656     0.00000     0.00000    -0.00000
  Local  ************************124888.17364    -0.00007     0.00000    -0.00000
  n-local   -17.80125   -17.18816   -14.04871     3.00106     0.00944    -0.06429
  augment   -84.41480   -84.41473   -85.26463     0.00006    -0.00000     0.00000
  Kinetic  1132.99433  1139.91833  1141.66233   -28.60986     0.03363     0.51602
  Fock        0.00000     0.00000     0.00000     0.00000     0.00000     0.00000
  vdW        -1.56278    -1.56278    -1.31616     0.00000    -0.00000    -0.00000
  Total      -4.60161    -4.60161    -3.87739     0.00000     0.00000     0.00000
  in kB     -15.45622   -15.45622   -13.02367     0.00000     0.00000     0.00000

 VOLUME and BASIS-vectors are now :
  energy-cutoff  :      317.13
  volume of cell :      477.00
      direct lattice vectors                 reciprocal lattice vectors
     3.319006624  0.000000000  0.000000000     0.301294970  0.173952732  0.000000000
    -1.659503312  2.874344052  0.000000000     0.000000000  0.347905464  0.000000000
     0.000000000  0.000000000 50.000000000     0.000000000  0.000000000  0.020000000

  length of vectors
     3.319006624  3.319006624 50.000000000     0.347905464  0.347905464  0.020000000

 FORCES acting on ions
    electron-ion (+dipol)            ewald-force                    non-local-force                 convergence-correction
   0.248E-06 0.706E-07 0.256E+04   0.103E-10 -.612E-11 -.256E+04   0.000E+00 -.260E-17 0.143E-01   0.387E-10 -.223E-10 -.116E-06
   -.247E-06 -.709E-07 -.256E+04   -.102E-10 0.605E-11 0.256E+04   0.000E+00 0.260E-17 -.143E-01   -.387E-10 0.223E-10 0.116E-06
   -.854E-07 0.502E-07 0.211E+03   -.523E-11 0.309E-11 -.208E+03   -.607E-17 -.173E-17 -.262E+01   -.670E-11 0.387E-11 -.185E-05
   0.889E-07 0.273E-06 0.198E+04   -.516E-11 0.305E-11 -.198E+04   -.911E-17 0.121E-16 0.259E+01   -.629E-11 0.364E-11 0.136E-05
   -.889E-07 -.273E-06 -.198E+04   0.516E-11 -.304E-11 0.198E+04   0.867E-17 -.104E-16 -.259E+01   0.630E-11 -.364E-11 -.136E-05
   0.855E-07 -.502E-07 -.211E+03   0.522E-11 -.310E-11 0.208E+03   -.260E-17 -.867E-17 0.262E+01   0.670E-11 -.387E-11 0.185E-05
   0.210E-09 -.318E-09 0.129E-09   0.630E-13 -.811E-13 0.284E-12   -.911E-17 -.867E-17 0.000E+00   0.100E-14 0.160E-13 -.352E-11

 POSITION                                       TOTAL-FORCE (eV/Angst)
     -0.00000      0.95811     21.75500        -0.000000     -0.000000      0.041707
      1.65950      1.91623     28.24500        -0.000000     -0.000000     -0.041707
      1.65950      1.91623     23.43428         0.000000      0.000000     -0.103580
      1.65950      1.91623     20.07572         0.000000      0.000000      0.054512
     -0.00000      0.95811     29.92428        -0.000000     -0.000000     -0.054512
     -0.00000      0.95811     26.56572         0.000000     -0.000000      0.103580
    total drift:                                0.000000     -0.000000      0.000000

  FREE ENERGIE OF THE ION-ELECTRON SYSTEM (eV)
  free  energy   TOTEN  =       -48.82120572 eV

  energy  without entropy=      -48.82120572  energy(sigma->0) =      -48.82120572

 Linear response reoptimize wavefunctions
 Linear response G [H, r] |phi>, progress :
  Direction:   1

[...]

  free energy    TOTEN  =      -244.22107605 eV

[...]

 Linear response G [H, r] |phi>, progress :
  Direction:   2

[...]

 Linear response G [H, r] |phi>, progress :
  Direction:   3

[...]

  free energy    TOTEN  =      -240.94640292 eV

[...]

 Linear response to external field (no local field effect), progress :
  Direction:   1
  LATTYP: Found a hexagonal cell.
 ALAT       =     3.3190066245
 C/A-ratio  =    15.0647484797

[...]

The dynamic configuration has the point symmetry C_2 .

[...]

 Free energy of the ion-electron system (eV)
  -Hartree energ DENC   =         0.00000000
  -V(xc)+E(xc)   XCENC  =         0.00000000
  PAW double counting   =         0.00000000        0.00000000
  entropy T*S    EENTRO =         0.00000000
  eigenvalues    EBANDS =        -4.22228385
  free energy    TOTEN  =        -4.22228385 eV

  energy without entropy =       -4.22228385

[...]

 change of polarisation eV/A/(eV/A) component  1 :    10.419    -1.029    -0.076
 dielectric tensor                  component  1 :     4.952    -0.390    -0.029

[...]

The dynamic configuration has the point symmetry C_1h.

[...]

 Linear response to external field (no local field effect), progress :
  Direction:   3
  LATTYP: Found a hexagonal cell.
 ALAT       =     3.3190066245
 C/A-ratio  =    15.0647484797

[...]

The dynamic configuration has the point symmetry C_1h.
 The point group associated with its full space group is C_3v.

[...]

 HEAD OF MICROSCOPIC STATIC DIELECTRIC TENSOR (INDEPENDENT PARTICLE, excluding Hartree and local field effects)
           4.878834     0.000000    -0.000000
           0.000000     4.878834     0.000000
           0.000000     0.000000     3.268766

 Linear response to external field, progress :
  Direction:   1
  LATTYP: Found a hexagonal cell.
 ALAT       =     3.3190066245
 C/A-ratio  =    15.0647484797

[...]

The dynamic configuration has the point symmetry C_2 .

[...]

  Parameters of vdW forcefield:
            C6ts              R0ts           ALPHAts        RELVOL
            (au)              (au)            (au)
   W         896.464          4.120         73.046          1.028
   W         896.464          4.120         73.046          1.028
   Se        213.916          4.056         25.232          1.009
   Se        209.413          4.042         24.965          0.999
   Se        209.413          4.042         24.965          0.999
   Se        213.916          4.056         25.232          1.009
  Edisp (eV):   -1.50742

[...]

 PIEZOELECTRIC TENSOR FIELD DIRECTION 1  (e Angst)
    -0.00356  0.00000  0.00000           ( -0.00019  0.00000  0.00000)
     0.00000  0.00489  0.00007           (  0.00000  0.00009  0.00000)
     0.00000  0.00014 -0.00032           (  0.00000  0.00000 -0.00004)

 PIEZOELECTRIC TENSOR FIELD DIRECTION 1  (C/m^2)
    -0.00012  0.00000  0.00000
     0.00000  0.00016  0.00000
     0.00000  0.00000 -0.00001

      POSITION         DIRECTION 1           BORN EFFECTIVE CHARGE    (rigid.aug.   ionic)
     -0.00000      0.95811     21.75500    -1.14398 -0.00022  0.00004 (  1.95584 14.00000)
      1.65950      1.91623     28.24500    -1.14398  0.00022 -0.00004 (  1.95584 14.00000)
      1.65950      1.91623     23.43428     0.58496 -0.00164  0.00014 (  1.12259  6.00000)
      1.65950      1.91623     20.07572     0.59219 -0.00157 -0.00007 (  1.12106  6.00000)
     -0.00000      0.95811     29.92428     0.59219  0.00157  0.00007 (  1.12106  6.00000)
     -0.00000      0.95811     26.56572     0.58496  0.00164 -0.00014 (  1.12259  6.00000)
    total drift (improves with k-points):   0.06636  0.00000  0.00000

[...]

The dynamic configuration has the point symmetry C_1h.

[...]

 Linear response to external field, progress :
  Direction:   3
  LATTYP: Found a hexagonal cell.
 ALAT       =     3.3190066245
 C/A-ratio  =    15.0647484797

[...]

The dynamic configuration has the point symmetry C_1h.
 The point group associated with its full space group is C_3v.

[...]

----------------------------------------- Iteration    3(  23)  ---------------------------------------

 Broyden mixing:
  rms(total) = 0.59453E-06    rms(broyden)= 0.59434E-06
  rms(prec ) = 0.61696E-06
  weight for this iteration     100.00

 eigenvalues of (default mixing * dielectric matrix)
  average eigenvalue GAMMA=   2.4617
  9.1238  7.6497  5.6114  4.2256  3.1979  2.7976  2.5358  2.1961  1.7691  1.7691
  1.4138  1.4138  1.1469  1.0194  1.0120  0.9637  0.9637  0.6723  0.6469  0.7868
  0.7802

 Free energy of the ion-electron system (eV)
  -Hartree energ DENC   =        -0.31460070
  -V(xc)+E(xc)   XCENC  =         0.00551334
  PAW double counting   =         0.01090768       -0.01082694
  entropy T*S    EENTRO =         0.00000000
  eigenvalues    EBANDS =        -0.07789630
  free energy    TOTEN  =        -0.38690293 eV

  energy without entropy =       -0.38690293

------------------------ aborting loop because EDIFF is reached ----------------------------------------

 change of polarisation eV/A/(eV/A) component  3 :    -0.004     0.001     0.760
 dielectric tensor                  component  3 :    -0.002     0.000     1.288

[...]

  Hirshfeld charges:
            ion         q(e)
      1     W           0.285
      2     W           0.285
      3     Se         -0.142
      4     Se         -0.143
      5     Se         -0.143
      6     Se         -0.142

  Tkatchenko/Scheffler method for vdW energy calculation

  Parameters of vdW forcefield:
            C6ts              R0ts           ALPHAts        RELVOL
            (au)              (au)            (au)
   W         896.464          4.120         73.046          1.028
   W         896.464          4.120         73.046          1.028
   Se        213.916          4.056         25.232          1.009
   Se        209.413          4.042         24.965          0.999
   Se        209.412          4.042         24.965          0.999
   Se        213.916          4.056         25.232          1.009
  Edisp (eV):   -1.50742

 PIEZOELECTRIC TENSOR FIELD DIRECTION 3  (e Angst)
     0.00099 -0.00000 -0.00000           ( -0.00000  0.00000 -0.00000)
    -0.00000  0.00099  0.00000           (  0.00000 -0.00000  0.00000)
    -0.00000  0.00000 -0.00045           ( -0.00000  0.00000  0.00000)

 PIEZOELECTRIC TENSOR FIELD DIRECTION 3  (C/m^2)
     0.00003 -0.00000 -0.00000
    -0.00000  0.00003  0.00000
    -0.00000  0.00000 -0.00002

      POSITION         DIRECTION 3           BORN EFFECTIVE CHARGE    (rigid.aug.   ionic)
     -0.00000      0.95811     21.75500     0.00000  0.00000 -4.32569 (  1.95584 14.00000)
      1.65950      1.91623     28.24500     0.00000  0.00000 -4.32704 (  1.95584 14.00000)
      1.65950      1.91623     23.43428    -0.00000  0.00000  0.07369 (  1.12259  6.00000)
      1.65950      1.91623     20.07572     0.00000  0.00000  0.17867 (  1.12106  6.00000)
     -0.00000      0.95811     29.92428     0.00000 -0.00000  0.17213 (  1.12106  6.00000)
     -0.00000      0.95811     26.56572     0.00000  0.00000  0.06307 (  1.12259  6.00000)
    total drift (improves with k-points):   0.00000  0.00000 -8.16518

[...]

 MACROSCOPIC STATIC DIELECTRIC TENSOR (including local field effects in DFT)
           4.712538     0.000000     0.000000
          -0.000000     4.712538     0.000000
           0.000000     0.000000     1.288352

  LATTYP: Found a hexagonal cell.
 ALAT       =     3.3190066245
 C/A-ratio  =    15.0647484797

  Lattice vectors:

 A1 = (   3.3190066245,   0.0000000000,   0.0000000000)
 A2 = (  -1.6595033122,   2.8743440521,   0.0000000000)
 A3 = (   0.0000000000,   0.0000000000,  50.0000000000)

Analysis of symmetry for initial positions (statically):
 Subroutine PRICEL returns:
 Original cell was already a primitive cell.

[...]

The static configuration has the point symmetry C_2h.
 The point group associated with its full space group is D_3d.

Analysis of symmetry for dynamics (positions and initial velocities):
 Subroutine PRICEL returns:
 Original cell was already a primitive cell.

 Routine SETGRP: Setting up the symmetry group for a
 hexagonal supercell.

 Subroutine GETGRP returns: Found 12 space group operations
 (whereof  4 operations were pure point group operations)
 out of a pool of 24 trial point group operations.

The dynamic configuration has the point symmetry C_2h.
 The point group associated with its full space group is D_3d.

 Subroutine INISYM returns: Found 12 space group operations
 (whereof  4 operations are pure point group operations),
 and found     1 'primitive' translations

 MACROSCOPIC STATIC DIELECTRIC TENSOR (including local field effects in DFT)
           4.712538     0.000000     0.000000
          -0.000000     4.712538     0.000000
           0.000000     0.000000     1.288352

 PIEZOELECTRIC TENSOR  for field in x, y, z        (e  Angst)
          XX          YY          ZZ          XY          YZ          ZX
  x    -0.00356     0.00489    -0.00032     0.00000     0.00014     0.00000
  y    -0.00490     0.00828     0.00192     0.00000     0.00036     0.00000
  z     0.00099     0.00099    -0.00045    -0.00000     0.00000    -0.00000

 PIEZOELECTRIC TENSOR  for field in x, y, z        (C/m^2)
          XX          YY          ZZ          XY          YZ          ZX
  x     0.00000     0.00000     0.00000     0.00000     0.00000     0.00000
  y     0.00000     0.00000     0.00000     0.00000     0.00000     0.00000
  z     0.00000     0.00000     0.00000     0.00000     0.00000     0.00000

 BORN EFFECTIVE CHARGES (in e, cummulative output)
 ion    1
    1    -1.14398    -0.00022     0.00004
    2     0.00000    -1.14471    -0.00002
    3     0.00000     0.00000    -4.32569
 ion    2
    1    -1.14398     0.00022    -0.00004
    2     0.00000    -1.14331     0.00003
    3     0.00000     0.00000    -4.32704
 ion    3
    1     0.58496    -0.00164     0.00014
    2     0.00000     0.58537     0.00104
    3    -0.00000     0.00000     0.07369
 ion    4
    1     0.59219    -0.00157    -0.00007
    2    -0.00000     0.59257    -0.00066
    3     0.00000     0.00000     0.17867
 ion    5
    1     0.59219     0.00157     0.00007
    2    -0.00000     0.59180     0.00065
    3     0.00000    -0.00000     0.17213
 ion    6
    1     0.58496     0.00164    -0.00014
    2     0.00000     0.58454    -0.00102
    3     0.00000     0.00000     0.06307

 writing wavefunctions
 BZINTS: Fermi energy: -1.837945; 52.000000 electrons
         Band energy:***********;  BLOECHL correction:  0.000000