 vasp.5.4.1 24Jun15 (build Apr 13 2016 13:07:19) complex

 executed on           IFC91_ompi date 2019.09.13  23:02:19

 INCAR:
 POTCAR:    PAW_PBE W_sv_GW 23Mar2010
 POTCAR:    PAW_PBE S_GW 19Mar2012

 POTCAR:    PAW_PBE W_sv_GW 23Mar2010
   VRHFIN =W: 5p6s5d

   TITEL  = PAW_PBE W_sv_GW 23Mar2010
   POMASS =  183.850; ZVAL   =   14.000    mass and valenz
   ENMAX  =  317.132; ENMIN  =  237.849 eV

 POTCAR:    PAW_PBE S_GW 19Mar2012
   VRHFIN =S : s2p4

   TITEL  = PAW_PBE S_GW 19Mar2012
   POMASS =   32.066; ZVAL   =    6.000    mass and valenz
   ENMAX  =  258.689; ENMIN  =  194.016 eV

  PAW_PBE W_sv_GW 23Mar2010             :
  PAW_PBE S_GW 19Mar2012                :

 POSCAR:  W  S
  positions in cartesian coordinates
 exchange correlation table for  LEXCH =        8
   RHO(1)=    0.500       N(1)  =     2000
   RHO(2)=  100.500       N(2)  =     4000

 ion  position               nearest neighbor table
   1  0.167  0.333  0.254-   7 2.42   7 2.42   7 2.42   6 2.42   6 2.42   6 2.42
   2  0.833  0.667  0.377-   8 2.42   8 2.42   8 2.42   9 2.42   9 2.42   9 2.42
   3  0.167  0.333  0.500-  10 2.42  11 2.42  10 2.42  11 2.42  10 2.42  11 2.42
   4  0.833  0.667  0.623-  13 2.42  13 2.42  13 2.42  12 2.42  12 2.42  12 2.42
   5  0.167  0.333  0.746-  14 2.42  14 2.42  14 2.42  15 2.42  15 2.42  15 2.42
   6  0.833  0.667  0.285-   1 2.42   1 2.42   1 2.42
   7  0.833  0.667  0.223-   1 2.42   1 2.42   1 2.42
   8  0.167  0.333  0.408-   2 2.42   2 2.42   2 2.42
   9  0.167  0.333  0.346-   2 2.42   2 2.42   2 2.42
  10  0.833  0.667  0.531-   3 2.42   3 2.42   3 2.42
  11  0.833  0.667  0.469-   3 2.42   3 2.42   3 2.42
  12  0.167  0.333  0.654-   4 2.42   4 2.42   4 2.42
  13  0.167  0.333  0.592-   4 2.42   4 2.42   4 2.42
  14  0.833  0.667  0.777-   5 2.42   5 2.42   5 2.42
  15  0.833  0.667  0.715-   5 2.42   5 2.42   5 2.42

  LATTYP: Found a hexagonal cell.
 ALAT       =     3.1859459497
 C/A-ratio  =    15.6939260082

  Lattice vectors:

 A1 = (   3.1859459497,   0.0000000000,   0.0000000000)
 A2 = (  -1.5929729748,   2.7591101275,   0.0000000000)
 A3 = (   0.0000000000,   0.0000000000,  50.0000000000)

Analysis of symmetry for initial positions (statically):
 Subroutine PRICEL returns:
 Original cell was already a primitive cell.

 Routine SETGRP: Setting up the symmetry group for a
 hexagonal supercell.

 Subroutine GETGRP returns: Found 12 space group operations
 (whereof  4 operations were pure point group operations)
 out of a pool of 24 trial point group operations.

The static configuration has the point symmetry C_2v.
 The point group associated with its full space group is D_3h.

Analysis of symmetry for dynamics (positions and initial velocities):
 Subroutine PRICEL returns:
 Original cell was already a primitive cell.

[...]

The dynamic configuration has the point symmetry C_2v.
 The point group associated with its full space group is D_3h.

 Subroutine INISYM returns: Found 12 space group operations
 (whereof  4 operations are pure point group operations),
 and found     1 'primitive' translations

 KPOINTS: KPOINTS created by Atomic Simulation Env

Automatic generation of k-mesh.
Space group operators:
 irot       det(A)        alpha          n_x          n_y          n_z        tau_x        tau_y        tau_z
    1     1.000000     0.000000     1.000000     0.000000     0.000000     0.000000     0.000000     0.000000
    2    -1.000000   180.000000     0.000000     0.000000     1.000000     0.000000     0.000000     0.000000
    3    -1.000000   180.000000     1.000000     0.000000     0.000000     0.000000     0.000000     0.000000
    4     1.000000   180.000000     0.000000     1.000000     0.000000     0.000000     0.000000     0.000000
    5    -1.000000    60.000000     0.000000     0.000000    -1.000000     0.000000     0.500000     0.000000
    6     1.000000   120.000000     0.000000     0.000000    -1.000000     0.500000     0.500000     0.000000
    7     1.000000   120.000000     0.000000     0.000000     1.000000     0.000000     0.500000     0.000000
    8    -1.000000    60.000000     0.000000     0.000000     1.000000     0.500000     0.500000     0.000000
    9     1.000000   180.000000     0.866025    -0.500000     0.000000     0.500000     0.500000     0.000000
   10    -1.000000   180.000000     0.500000    -0.866025     0.000000     0.000000     0.500000     0.000000
   11    -1.000000   180.000000    -0.500000    -0.866025     0.000000     0.500000     0.500000     0.000000
   12     1.000000   180.000000     0.866025     0.500000     0.000000     0.000000     0.500000     0.000000

 Subroutine IBZKPT returns following result:

 Found     37 irreducible k-points:

 Following reciprocal coordinates:
            Coordinates               Weight
  0.000000  0.000000  0.000000      1.000000
  0.055556  0.000000  0.000000      6.000000
  0.111111  0.000000  0.000000      6.000000
  0.166667  0.000000  0.000000      6.000000
  0.222222  0.000000  0.000000      6.000000
  0.277778  0.000000  0.000000      6.000000
  0.333333  0.000000  0.000000      6.000000
  0.388889  0.000000  0.000000      6.000000
  0.444444  0.000000  0.000000      6.000000
  0.500000  0.000000  0.000000      3.000000
  0.055556  0.055556  0.000000      6.000000
  0.111111  0.055556  0.000000     12.000000
  0.166667  0.055556  0.000000     12.000000
  0.222222  0.055556  0.000000     12.000000
  0.277778  0.055556  0.000000     12.000000
  0.333333  0.055556  0.000000     12.000000
  0.388889  0.055556  0.000000     12.000000
  0.444444  0.055556  0.000000     12.000000
  0.111111  0.111111  0.000000      6.000000
  0.166667  0.111111  0.000000     12.000000
  0.222222  0.111111  0.000000     12.000000
  0.277778  0.111111  0.000000     12.000000
  0.333333  0.111111  0.000000     12.000000
  0.388889  0.111111  0.000000     12.000000
  0.444444  0.111111  0.000000      6.000000
  0.166667  0.166667  0.000000      6.000000
  0.222222  0.166667  0.000000     12.000000
  0.277778  0.166667  0.000000     12.000000
  0.333333  0.166667  0.000000     12.000000
  0.388889  0.166667  0.000000     12.000000
  0.222222  0.222222  0.000000      6.000000
  0.277778  0.222222  0.000000     12.000000
  0.333333  0.222222  0.000000     12.000000
  0.388889  0.222222  0.000000      6.000000
  0.277778  0.277778  0.000000      6.000000
  0.333333  0.277778  0.000000     12.000000
  0.333333  0.333333  0.000000      2.000000

 Following cartesian coordinates:
            Coordinates               Weight
  0.000000  0.000000  0.000000      1.000000
  0.017438  0.010068  0.000000      6.000000
  0.034875  0.020135  0.000000      6.000000
  0.052313  0.030203  0.000000      6.000000
  0.069751  0.040271  0.000000      6.000000
  0.087188  0.050338  0.000000      6.000000
  0.104626  0.060406  0.000000      6.000000
  0.122064  0.070474  0.000000      6.000000
  0.139502  0.080541  0.000000      6.000000
  0.156939  0.090609  0.000000      3.000000
  0.017438  0.030203  0.000000      6.000000
  0.034875  0.040271  0.000000     12.000000
  0.052313  0.050338  0.000000     12.000000
  0.069751  0.060406  0.000000     12.000000
  0.087188  0.070474  0.000000     12.000000
  0.104626  0.080541  0.000000     12.000000
  0.122064  0.090609  0.000000     12.000000
  0.139502  0.100677  0.000000     12.000000
  0.034875  0.060406  0.000000      6.000000
  0.052313  0.070474  0.000000     12.000000
  0.069751  0.080541  0.000000     12.000000
  0.087188  0.090609  0.000000     12.000000
  0.104626  0.100677  0.000000     12.000000
  0.122064  0.110744  0.000000     12.000000
  0.139502  0.120812  0.000000      6.000000
  0.052313  0.090609  0.000000      6.000000
  0.069751  0.100677  0.000000     12.000000
  0.087188  0.110744  0.000000     12.000000
  0.104626  0.120812  0.000000     12.000000
  0.122064  0.130880  0.000000     12.000000
  0.069751  0.120812  0.000000      6.000000
  0.087188  0.130880  0.000000     12.000000
  0.104626  0.140947  0.000000     12.000000
  0.122064  0.151015  0.000000      6.000000
  0.087188  0.151015  0.000000      6.000000
  0.104626  0.161083  0.000000     12.000000
  0.104626  0.181218  0.000000      2.000000

 TETIRR: Found    169 inequivalent tetrahedra from     1944

 Subroutine IBZKPT_HF returns following result:

 Found    324 k-points in 1st BZ
 the following    324 k-points will be used (e.g. in the exchange kernel)
 Following reciprocal coordinates:   # in IRBZ
  0.000000  0.000000  0.000000    0.00308642   1 t-inv F
  0.055556  0.000000  0.000000    0.00308642   2 t-inv F
  0.111111  0.000000  0.000000    0.00308642   3 t-inv F
  0.166667  0.000000  0.000000    0.00308642   4 t-inv F
  0.222222  0.000000  0.000000    0.00308642   5 t-inv F
  0.277778  0.000000  0.000000    0.00308642   6 t-inv F
  0.333333  0.000000  0.000000    0.00308642   7 t-inv F
  0.388889  0.000000  0.000000    0.00308642   8 t-inv F
  0.444444  0.000000  0.000000    0.00308642   9 t-inv F
  0.500000  0.000000  0.000000    0.00308642  10 t-inv F
  0.055556  0.055556  0.000000    0.00308642  11 t-inv F
  0.111111  0.055556  0.000000    0.00308642  12 t-inv F
  0.166667  0.055556  0.000000    0.00308642  13 t-inv F
  0.222222  0.055556  0.000000    0.00308642  14 t-inv F
  0.277778  0.055556  0.000000    0.00308642  15 t-inv F
  0.333333  0.055556  0.000000    0.00308642  16 t-inv F
  0.388889  0.055556  0.000000    0.00308642  17 t-inv F
  0.444444  0.055556  0.000000    0.00308642  18 t-inv F
  0.111111  0.111111  0.000000    0.00308642  19 t-inv F
  0.166667  0.111111  0.000000    0.00308642  20 t-inv F
  0.222222  0.111111  0.000000    0.00308642  21 t-inv F
  0.277778  0.111111  0.000000    0.00308642  22 t-inv F
  0.333333  0.111111  0.000000    0.00308642  23 t-inv F
  0.388889  0.111111  0.000000    0.00308642  24 t-inv F
  0.444444  0.111111  0.000000    0.00308642  25 t-inv F
  0.166667  0.166667  0.000000    0.00308642  26 t-inv F
  0.222222  0.166667  0.000000    0.00308642  27 t-inv F
  0.277778  0.166667  0.000000    0.00308642  28 t-inv F
  0.333333  0.166667  0.000000    0.00308642  29 t-inv F
  0.388889  0.166667  0.000000    0.00308642  30 t-inv F
  0.222222  0.222222  0.000000    0.00308642  31 t-inv F
  0.277778  0.222222  0.000000    0.00308642  32 t-inv F
  0.333333  0.222222  0.000000    0.00308642  33 t-inv F
  0.388889  0.222222  0.000000    0.00308642  34 t-inv F
  0.277778  0.277778  0.000000    0.00308642  35 t-inv F
  0.333333  0.277778  0.000000    0.00308642  36 t-inv F
  0.333333  0.333333  0.000000    0.00308642  37 t-inv F
 -0.055556  0.055556  0.000000    0.00308642   2 t-inv F
  0.000000 -0.055556 -0.000000    0.00308642   2 t-inv F
 -0.111111  0.111111  0.000000    0.00308642   3 t-inv F
  0.000000 -0.111111 -0.000000    0.00308642   3 t-inv F
 -0.166667  0.166667  0.000000    0.00308642   4 t-inv F
  0.000000 -0.166667 -0.000000    0.00308642   4 t-inv F
 -0.222222  0.222222  0.000000    0.00308642   5 t-inv F
  0.000000 -0.222222 -0.000000    0.00308642   5 t-inv F
 -0.277778  0.277778  0.000000    0.00308642   6 t-inv F
  0.000000 -0.277778 -0.000000    0.00308642   6 t-inv F
 -0.333333  0.333333  0.000000    0.00308642   7 t-inv F
[...]
   -.663E-06 0.383E-06 0.195E-09   0.163E-12 -.260E-12 -.136E-11   -.520E-17 0.173E-17 0.178E-14   -.657E-09 0.380E-09 0.888E-11

 POSITION                                       TOTAL-FORCE (eV/Angst)
     -0.00000      0.91970     12.70000        -0.000000      0.000000      0.067626
      1.59297      1.83941     18.85000        -0.000000      0.000000      0.002362
     -0.00000      0.91970     25.00000         0.000000      0.000000      0.000000
      1.59297      1.83941     31.15000        -0.000000     -0.000000     -0.002362
     -0.00000      0.91970     37.30000        -0.000000      0.000000     -0.067626
      1.59297      1.83941     14.27280        -0.000000     -0.000000     -0.126391
      1.59297      1.83941     11.12720         0.000000     -0.000000      0.055356
     -0.00000      0.91970     20.42280        -0.000000      0.000000     -0.138337
     -0.00000      0.91970     17.27720         0.000000     -0.000000      0.140044
      1.59297      1.83941     26.57280         0.000000     -0.000000     -0.138857
      1.59297      1.83941     23.42720         0.000000     -0.000000      0.138857
     -0.00000      0.91970     32.72280         0.000000     -0.000000     -0.140044
     -0.00000      0.91970     29.57720         0.000000      0.000000      0.138337
      1.59297      1.83941     38.87280         0.000000     -0.000000     -0.055356
      1.59297      1.83941     35.72720        -0.000000     -0.000000      0.126391
    total drift:                               -0.000001      0.000000      0.000000

  FREE ENERGIE OF THE ION-ELECTRON SYSTEM (eV)
  free  energy   TOTEN  =      -132.44999921 eV

  energy  without entropy=     -132.44999921  energy(sigma->0) =     -132.44999921

 Linear response reoptimize wavefunctions
 Linear response G [H, r] |phi>, progress :
  Direction:   1

[...]

  free energy    TOTEN  =      -571.04346719 eV

[...]

 Linear response G [H, r] |phi>, progress :
  Direction:   2

[...]

 Linear response G [H, r] |phi>, progress :
  Direction:   3

[...]

  free energy    TOTEN  =      -566.90694578 eV

[...]

 Linear response to external field (no local field effect), progress :
  Direction:   1
  LATTYP: Found a hexagonal cell.
 ALAT       =     3.1859459497
 C/A-ratio  =    15.6939260082

[...]

The dynamic configuration has the point symmetry C_1h.

[...]

 Free energy of the ion-electron system (eV)
  -Hartree energ DENC   =         0.00000000
  -V(xc)+E(xc)   XCENC  =         0.00000000
  PAW double counting   =         0.00000000        0.00000000
  entropy T*S    EENTRO =         0.00000000
  eigenvalues    EBANDS =        -9.08366986
  free energy    TOTEN  =        -9.08366986 eV

  energy without entropy =       -9.08366986

[...]

 change of polarisation eV/A/(eV/A) component  1 :    21.138    -2.730    -0.000
 dielectric tensor                  component  1 :     9.703    -1.124    -0.000

[...]

The dynamic configuration has the point symmetry C_2v.

[...]

 Linear response to external field (no local field effect), progress :
  Direction:   3
  LATTYP: Found a hexagonal cell.
 ALAT       =     3.1859459497
 C/A-ratio  =    15.6939260082

[...]

The dynamic configuration has the point symmetry C_1h.
 The point group associated with its full space group is C_3v.

[...]

 HEAD OF MICROSCOPIC STATIC DIELECTRIC TENSOR (INDEPENDENT PARTICLE, excluding Hartree and local field effects)
           9.434175    -0.000000     0.000000
           0.000000     9.434175     0.000000
          -0.000000     0.000000     5.939202

 Linear response to external field, progress :
  Direction:   1
  LATTYP: Found a hexagonal cell.
 ALAT       =     3.1859459497
 C/A-ratio  =    15.6939260082

[...]

The dynamic configuration has the point symmetry C_1h.

[...]

  Parameters of vdW forcefield:
            C6ts              R0ts           ALPHAts        RELVOL
            (au)              (au)            (au)
   W         873.718          4.102         72.113          1.015
   W         882.138          4.109         72.460          1.020
   W         882.182          4.109         72.461          1.020
   W         882.138          4.109         72.460          1.020
   W         873.718          4.102         72.113          1.015
   S         135.468          3.862         19.707          1.005
   S         132.619          3.848         19.499          0.995
   S         135.472          3.862         19.707          1.005
   S         135.465          3.862         19.707          1.005
   S         135.472          3.862         19.707          1.005
   S         135.472          3.862         19.707          1.005
   S         135.465          3.862         19.707          1.005
   S         135.472          3.862         19.707          1.005
   S         132.619          3.848         19.499          0.995
   S         135.468          3.862         19.707          1.005
  Edisp (eV):   -4.18166

[...]

 PIEZOELECTRIC TENSOR FIELD DIRECTION 1  (e Angst)
    -0.01178 -1.09522  0.00000           ( -0.00004  0.03695  0.00000)
    -1.09534  0.00984  0.00000           (  0.03695  0.00007  0.00000)
     0.00000  0.00000 -0.00004           (  0.00000  0.00000  0.00003)

 PIEZOELECTRIC TENSOR FIELD DIRECTION 1  (C/m^2)
    -0.00043 -0.03992  0.00000
    -0.03993  0.00036  0.00000
     0.00000  0.00000 -0.00000

      POSITION         DIRECTION 1           BORN EFFECTIVE CHARGE    (rigid.aug.   ionic)
     -0.00000      0.91970     12.70000    -0.43674 -0.00078 -0.00000 (  1.96478 14.00000)
      1.59297      1.83941     18.85000    -0.44879  0.00079 -0.00001 (  1.96472 14.00000)
     -0.00000      0.91970     25.00000    -0.45243 -0.00079  0.00000 (  1.96472 14.00000)
      1.59297      1.83941     31.15000    -0.44879  0.00079  0.00001 (  1.96472 14.00000)
     -0.00000      0.91970     37.30000    -0.43674 -0.00078  0.00000 (  1.96478 14.00000)
      1.59297      1.83941     14.27280     0.24060 -0.00026 -0.00018 (  0.65943  6.00000)
      1.59297      1.83941     11.12720     0.25933 -0.00027  0.00011 (  0.65870  6.00000)
     -0.00000      0.91970     20.42280     0.25294  0.00026 -0.00018 (  0.65945  6.00000)
     -0.00000      0.91970     17.27720     0.25329  0.00027  0.00018 (  0.65945  6.00000)
      1.59297      1.83941     26.57280     0.25275 -0.00026 -0.00018 (  0.65946  6.00000)
      1.59297      1.83941     23.42720     0.25275 -0.00026  0.00018 (  0.65946  6.00000)
     -0.00000      0.91970     32.72280     0.25329  0.00027 -0.00018 (  0.65945  6.00000)
     -0.00000      0.91970     29.57720     0.25294  0.00026  0.00018 (  0.65945  6.00000)
      1.59297      1.83941     38.87280     0.25933 -0.00027 -0.00011 (  0.65870  6.00000)
      1.59297      1.83941     35.72720     0.24060 -0.00026  0.00018 (  0.65943  6.00000)
    total drift (improves with k-points):   0.29434 -0.00130 -0.00000

[...]

The dynamic configuration has the point symmetry C_2v.

[...]

 Linear response to external field, progress :
  Direction:   3
  LATTYP: Found a hexagonal cell.
 ALAT       =     3.1859459497
 C/A-ratio  =    15.6939260082

[...]

The dynamic configuration has the point symmetry C_1h.
 The point group associated with its full space group is C_3v.

[...]

----------------------------------------- Iteration    3(  25)  ---------------------------------------

 Broyden mixing:
  rms(total) = 0.40459E-06    rms(broyden)= 0.40437E-06
  rms(prec ) = 0.41972E-06
  weight for this iteration     100.00

 eigenvalues of (default mixing * dielectric matrix)
  average eigenvalue GAMMA=   2.3003
  9.6623  7.8979  5.1079  3.9618  3.1155  3.1155  2.3571  2.1424  1.7744  1.6497
  1.6497  1.1001  1.1001  0.9621  0.9621  0.9178  0.9178  0.8988  0.7723  0.7602
  0.7195  0.6842  0.6772

 Free energy of the ion-electron system (eV)
  -Hartree energ DENC   =        -0.92604883
  -V(xc)+E(xc)   XCENC  =         0.01592845
  PAW double counting   =         0.04717164       -0.04733937
  entropy T*S    EENTRO =         0.00000000
  eigenvalues    EBANDS =        -0.40198918
  free energy    TOTEN  =        -1.31227729 eV

  energy without entropy =       -1.31227729

------------------------ aborting loop because EDIFF is reached ----------------------------------------

 change of polarisation eV/A/(eV/A) component  3 :     0.000     0.000     2.568
 dielectric tensor                  component  3 :     0.000     0.000     2.057

[...]

  Hirshfeld charges:
            ion         q(e)
      1     W           0.351
      2     W           0.350
      3     W           0.350
      4     W           0.350
      5     W           0.351
      6     S          -0.175
      7     S          -0.176
      8     S          -0.175
      9     S          -0.175
     10     S          -0.175
     11     S          -0.175
     12     S          -0.175
     13     S          -0.175
     14     S          -0.176
     15     S          -0.175

  Tkatchenko/Scheffler method for vdW energy calculation

  Parameters of vdW forcefield:
            C6ts              R0ts           ALPHAts        RELVOL
            (au)              (au)            (au)
   W         873.718          4.102         72.113          1.015
   W         882.138          4.109         72.460          1.020
   W         882.182          4.109         72.461          1.020
   W         882.138          4.109         72.460          1.020
   W         873.718          4.102         72.113          1.015
   S         135.468          3.862         19.707          1.005
   S         132.619          3.848         19.499          0.995
   S         135.472          3.862         19.707          1.005
   S         135.466          3.862         19.707          1.005
   S         135.472          3.862         19.707          1.005
   S         135.472          3.862         19.707          1.005
   S         135.465          3.862         19.707          1.005
   S         135.472          3.862         19.707          1.005
   S         132.619          3.848         19.499          0.995
   S         135.468          3.862         19.707          1.005
  Edisp (eV):   -4.18166

 PIEZOELECTRIC TENSOR FIELD DIRECTION 3  (e Angst)
     0.00002 -0.00000  0.00000           ( -0.00000 -0.00000  0.00000)
     0.00000  0.00002  0.00000           (  0.00000 -0.00000  0.00000)
     0.00000  0.00000  0.00006           (  0.00000  0.00000 -0.00000)

 PIEZOELECTRIC TENSOR FIELD DIRECTION 3  (C/m^2)
     0.00000 -0.00000  0.00000
     0.00000  0.00000  0.00000
     0.00000  0.00000  0.00000

      POSITION         DIRECTION 3           BORN EFFECTIVE CHARGE    (rigid.aug.   ionic)
     -0.00000      0.91970     12.70000     0.00000 -0.00000-36.04441 (  1.96478 14.00000)
      1.59297      1.83941     18.85000     0.00000  0.00000-10.05232 (  1.96472 14.00000)
     -0.00000      0.91970     25.00000    -0.00000  0.00000 -1.50353 (  1.96472 14.00000)
      1.59297      1.83941     31.15000     0.00000 -0.00000-10.05233 (  1.96472 14.00000)
     -0.00000      0.91970     37.30000     0.00000  0.00000-36.04445 (  1.96478 14.00000)
      1.59297      1.83941     14.27280    -0.00000  0.00000 -3.99398 (  0.65943  6.00000)
      1.59297      1.83941     11.12720     0.00000 -0.00000  2.60415 (  0.65870  6.00000)
     -0.00000      0.91970     20.42280    -0.00000  0.00000 -0.62191 (  0.65945  6.00000)
     -0.00000      0.91970     17.27720    -0.00000  0.00000  1.30078 (  0.65945  6.00000)
      1.59297      1.83941     26.57280    -0.00000 -0.00000  0.46260 (  0.65946  6.00000)
      1.59297      1.83941     23.42720    -0.00000 -0.00000  0.46260 (  0.65946  6.00000)
     -0.00000      0.91970     32.72280    -0.00000 -0.00000  1.30078 (  0.65945  6.00000)
     -0.00000      0.91970     29.57720    -0.00000 -0.00000 -0.62191 (  0.65945  6.00000)
      1.59297      1.83941     38.87280     0.00000 -0.00000  2.60416 (  0.65870  6.00000)
      1.59297      1.83941     35.72720    -0.00000  0.00000 -3.99398 (  0.65943  6.00000)
    total drift (improves with k-points):  -0.00000 -0.00000-94.19374

[...]

 MACROSCOPIC STATIC DIELECTRIC TENSOR (including local field effects in DFT)
           9.010508    -0.000000     0.000000
          -0.000000     9.010508    -0.000000
           0.000000     0.000000     2.057414

  LATTYP: Found a hexagonal cell.
 ALAT       =     3.1859459497
 C/A-ratio  =    15.6939260082

  Lattice vectors:

 A1 = (   3.1859459497,   0.0000000000,   0.0000000000)
 A2 = (  -1.5929729748,   2.7591101275,   0.0000000000)
 A3 = (   0.0000000000,   0.0000000000,  50.0000000000)

Analysis of symmetry for initial positions (statically):
 Subroutine PRICEL returns:
 Original cell was already a primitive cell.

[...]

The static configuration has the point symmetry C_2v.
 The point group associated with its full space group is D_3h.

Analysis of symmetry for dynamics (positions and initial velocities):
 Subroutine PRICEL returns:
 Original cell was already a primitive cell.

 Routine SETGRP: Setting up the symmetry group for a
 hexagonal supercell.

 Subroutine GETGRP returns: Found 12 space group operations
 (whereof  4 operations were pure point group operations)
 out of a pool of 24 trial point group operations.

The dynamic configuration has the point symmetry C_2v.
 The point group associated with its full space group is D_3h.

 Subroutine INISYM returns: Found 12 space group operations
 (whereof  4 operations are pure point group operations),
 and found     1 'primitive' translations

 MACROSCOPIC STATIC DIELECTRIC TENSOR (including local field effects in DFT)
           9.010508    -0.000000     0.000000
          -0.000000     9.010508    -0.000000
           0.000000     0.000000     2.057414

 PIEZOELECTRIC TENSOR  for field in x, y, z        (e  Angst)
          XX          YY          ZZ          XY          YZ          ZX
  x    -0.01178     0.00984    -0.00004    -1.09534     0.00000     0.00000
  y    -1.10780     1.11243     0.00107     0.00000     0.00000     0.00000
  z     0.00002     0.00002     0.00006     0.00000     0.00000     0.00000

 PIEZOELECTRIC TENSOR  for field in x, y, z        (C/m^2)
          XX          YY          ZZ          XY          YZ          ZX
  x     0.00000     0.00000     0.00000    -0.04020     0.00000     0.00000
  y    -0.04020     0.04020    -0.00000    -0.00000     0.00000     0.00000
  z     0.00000     0.00000     0.00000     0.00000     0.00000     0.00000

 BORN EFFECTIVE CHARGES (in e, cummulative output)
 ion    1
    1    -0.43674    -0.00078    -0.00000
    2    -0.00000    -0.43758     0.00000
    3     0.00000    -0.00000   -36.04441
 ion    2
    1    -0.44879     0.00079    -0.00001
    2    -0.00000    -0.44794    -0.00001
    3     0.00000     0.00000   -10.05232
 ion    3
    1    -0.45243    -0.00079     0.00000
    2    -0.00000    -0.45337     0.00000
    3    -0.00000     0.00000    -1.50353
 ion    4
    1    -0.44879     0.00079     0.00001
    2    -0.00000    -0.44794     0.00001
    3     0.00000    -0.00000   -10.05233
 ion    5
    1    -0.43674    -0.00078     0.00000
    2    -0.00000    -0.43758    -0.00000
    3     0.00000     0.00000   -36.04445
 ion    6
    1     0.24060    -0.00026    -0.00018
    2    -0.00000     0.24107     0.00044
    3    -0.00000     0.00000    -3.99398
 ion    7
    1     0.25933    -0.00027     0.00011
    2     0.00000     0.25975    -0.00032
    3     0.00000    -0.00000     2.60415
 ion    8
    1     0.25294     0.00026    -0.00018
    2     0.00000     0.25246     0.00044
    3    -0.00000     0.00000    -0.62191
 ion    9
    1     0.25329     0.00027     0.00018
    2     0.00000     0.25282    -0.00044
    3    -0.00000     0.00000     1.30078
 ion   10
    1     0.25275    -0.00026    -0.00018
    2     0.00000     0.25323     0.00045
    3    -0.00000    -0.00000     0.46260
 ion   11
    1     0.25275    -0.00026     0.00018
    2     0.00000     0.25323    -0.00045
    3    -0.00000    -0.00000     0.46260
 ion   12
    1     0.25329     0.00027    -0.00018
    2     0.00000     0.25282     0.00044
    3    -0.00000    -0.00000     1.30078
 ion   13
    1     0.25294     0.00026     0.00018
    2     0.00000     0.25246    -0.00044
    3    -0.00000    -0.00000    -0.62191
 ion   14
    1     0.25933    -0.00027    -0.00011
    2     0.00000     0.25975     0.00032
    3     0.00000    -0.00000     2.60416
 ion   15
    1     0.24060    -0.00026     0.00018
    2    -0.00000     0.24107    -0.00044
    3    -0.00000     0.00000    -3.99398

 writing wavefunctions
 BZINTS: Fermi energy:  2.848770;130.000000 electrons
         Band energy:***********;  BLOECHL correction:  0.000000