 vasp.5.4.1 24Jun15 (build Apr 13 2016 13:07:19) complex

 executed on           IFC91_ompi date 2019.09.13  19:00:59

 INCAR:
 POTCAR:    PAW_PBE Mo_sv_GW 05Dec2013
 POTCAR:    PAW_PBE Se_GW 20Mar2012

 POTCAR:    PAW_PBE Mo_sv_GW 05Dec2013
   VRHFIN =Mo: 4s4p5s4d

   TITEL  = PAW_PBE Mo_sv_GW 05Dec2013
   POMASS =   95.940; ZVAL   =   14.000    mass and valenz
   ENMAX  =  344.914; ENMIN  =  258.686 eV

 POTCAR:    PAW_PBE Se_GW 20Mar2012
   VRHFIN =Se: s2p4

   TITEL  = PAW_PBE Se_GW 20Mar2012
   POMASS =   78.960; ZVAL   =    6.000    mass and valenz
   ENMAX  =  211.555; ENMIN  =  158.666 eV

  PAW_PBE Mo_sv_GW 05Dec2013            :
  PAW_PBE Se_GW 20Mar2012               :

 POSCAR: Mo Se
  positions in cartesian coordinates
 exchange correlation table for  LEXCH =        8
   RHO(1)=    0.500       N(1)  =     2000
   RHO(2)=  100.500       N(2)  =     4000

 ion  position               nearest neighbor table
   1  0.167  0.333  0.435-   3 2.54   4 2.54   3 2.54   4 2.54   3 2.54   4 2.54
   2  0.833  0.667  0.565-   5 2.54   6 2.54   5 2.54   6 2.54   5 2.54   6 2.54
   3  0.833  0.667  0.469-   1 2.54   1 2.54   1 2.54
   4  0.833  0.667  0.402-   1 2.54   1 2.54   1 2.54
   5  0.167  0.333  0.598-   2 2.54   2 2.54   2 2.54
   6  0.167  0.333  0.531-   2 2.54   2 2.54   2 2.54

  LATTYP: Found a hexagonal cell.
 ALAT       =     3.3197487879
 C/A-ratio  =    15.0613806029

  Lattice vectors:

 A1 = (   3.3197487879,   0.0000000000,   0.0000000000)
 A2 = (  -1.6598743939,   2.8749867845,   0.0000000000)
 A3 = (   0.0000000000,   0.0000000000,  50.0000000000)

Analysis of symmetry for initial positions (statically):
 Subroutine PRICEL returns:
 Original cell was already a primitive cell.

 Routine SETGRP: Setting up the symmetry group for a
 hexagonal supercell.

 Subroutine GETGRP returns: Found 12 space group operations
 (whereof  4 operations were pure point group operations)
 out of a pool of 24 trial point group operations.

The static configuration has the point symmetry C_2h.
 The point group associated with its full space group is D_3d.

Analysis of symmetry for dynamics (positions and initial velocities):
 Subroutine PRICEL returns:
 Original cell was already a primitive cell.

[...]

The dynamic configuration has the point symmetry C_2h.
 The point group associated with its full space group is D_3d.

 Subroutine INISYM returns: Found 12 space group operations
 (whereof  4 operations are pure point group operations),
 and found     1 'primitive' translations

 KPOINTS: KPOINTS created by Atomic Simulation Env

Automatic generation of k-mesh.
Space group operators:
 irot       det(A)        alpha          n_x          n_y          n_z        tau_x        tau_y        tau_z
    1     1.000000     0.000000     1.000000     0.000000     0.000000     0.000000     0.000000     0.000000
    2    -1.000000     0.000000     1.000000     0.000000     0.000000     0.000000     0.000000     0.000000
    3     1.000000   180.000000     1.000000     0.000000     0.000000     0.000000     0.000000     0.000000
    4    -1.000000   180.000000     1.000000     0.000000     0.000000     0.000000     0.000000     0.000000
    5     1.000000   120.000000     0.000000     0.000000    -1.000000     0.500000     0.500000     0.000000
    6    -1.000000   120.000000     0.000000     0.000000    -1.000000     0.500000     0.500000     0.000000
    7     1.000000   120.000000     0.000000     0.000000     1.000000     0.000000     0.500000     0.000000
    8    -1.000000   120.000000     0.000000     0.000000     1.000000     0.000000     0.500000     0.000000
    9     1.000000   180.000000     0.500000    -0.866025     0.000000     0.000000     0.500000     0.000000
   10    -1.000000   180.000000     0.500000    -0.866025     0.000000     0.000000     0.500000     0.000000
   11     1.000000   180.000000    -0.500000    -0.866025     0.000000     0.500000     0.500000     0.000000
   12    -1.000000   180.000000    -0.500000    -0.866025     0.000000     0.500000     0.500000     0.000000

 Subroutine IBZKPT returns following result:

 Found     37 irreducible k-points:

 Following reciprocal coordinates:
            Coordinates               Weight
  0.000000  0.000000  0.000000      1.000000
  0.055556  0.000000  0.000000      6.000000
  0.111111  0.000000  0.000000      6.000000
  0.166667  0.000000  0.000000      6.000000
  0.222222  0.000000  0.000000      6.000000
  0.277778  0.000000  0.000000      6.000000
  0.333333  0.000000  0.000000      6.000000
  0.388889  0.000000  0.000000      6.000000
  0.444444  0.000000  0.000000      6.000000
  0.500000  0.000000  0.000000      3.000000
  0.055556  0.055556  0.000000      6.000000
  0.111111  0.055556  0.000000     12.000000
  0.166667  0.055556  0.000000     12.000000
  0.222222  0.055556  0.000000     12.000000
  0.277778  0.055556  0.000000     12.000000
  0.333333  0.055556  0.000000     12.000000
  0.388889  0.055556  0.000000     12.000000
  0.444444  0.055556  0.000000     12.000000
  0.111111  0.111111  0.000000      6.000000
  0.166667  0.111111  0.000000     12.000000
  0.222222  0.111111  0.000000     12.000000
  0.277778  0.111111  0.000000     12.000000
  0.333333  0.111111  0.000000     12.000000
  0.388889  0.111111  0.000000     12.000000
  0.444444  0.111111  0.000000      6.000000
  0.166667  0.166667  0.000000      6.000000
  0.222222  0.166667  0.000000     12.000000
  0.277778  0.166667  0.000000     12.000000
  0.333333  0.166667  0.000000     12.000000
  0.388889  0.166667  0.000000     12.000000
  0.222222  0.222222  0.000000      6.000000
  0.277778  0.222222  0.000000     12.000000
  0.333333  0.222222  0.000000     12.000000
  0.388889  0.222222  0.000000      6.000000
  0.277778  0.277778  0.000000      6.000000
  0.333333  0.277778  0.000000     12.000000
  0.333333  0.333333  0.000000      2.000000

 Following cartesian coordinates:
            Coordinates               Weight
  0.000000  0.000000  0.000000      1.000000
  0.016735  0.009662  0.000000      6.000000
  0.033470  0.019324  0.000000      6.000000
  0.050205  0.028986  0.000000      6.000000
  0.066939  0.038648  0.000000      6.000000
  0.083674  0.048309  0.000000      6.000000
  0.100409  0.057971  0.000000      6.000000
  0.117144  0.067633  0.000000      6.000000
  0.133879  0.077295  0.000000      6.000000
  0.150614  0.086957  0.000000      3.000000
  0.016735  0.028986  0.000000      6.000000
  0.033470  0.038648  0.000000     12.000000
  0.050205  0.048309  0.000000     12.000000
  0.066939  0.057971  0.000000     12.000000
  0.083674  0.067633  0.000000     12.000000
  0.100409  0.077295  0.000000     12.000000
  0.117144  0.086957  0.000000     12.000000
  0.133879  0.096619  0.000000     12.000000
  0.033470  0.057971  0.000000      6.000000
  0.050205  0.067633  0.000000     12.000000
  0.066939  0.077295  0.000000     12.000000
  0.083674  0.086957  0.000000     12.000000
  0.100409  0.096619  0.000000     12.000000
  0.117144  0.106281  0.000000     12.000000
  0.133879  0.115943  0.000000      6.000000
  0.050205  0.086957  0.000000      6.000000
  0.066939  0.096619  0.000000     12.000000
  0.083674  0.106281  0.000000     12.000000
  0.100409  0.115943  0.000000     12.000000
  0.117144  0.125604  0.000000     12.000000
  0.066939  0.115943  0.000000      6.000000
  0.083674  0.125604  0.000000     12.000000
  0.100409  0.135266  0.000000     12.000000
  0.117144  0.144928  0.000000      6.000000
  0.083674  0.144928  0.000000      6.000000
  0.100409  0.154590  0.000000     12.000000
  0.100409  0.173914  0.000000      2.000000

 TETIRR: Found    169 inequivalent tetrahedra from     1944

 Subroutine IBZKPT_HF returns following result:

 Found    324 k-points in 1st BZ
 the following    324 k-points will be used (e.g. in the exchange kernel)
 Following reciprocal coordinates:   # in IRBZ
  0.000000  0.000000  0.000000    0.00308642   1 t-inv F
  0.055556  0.000000  0.000000    0.00308642   2 t-inv F
  0.111111  0.000000  0.000000    0.00308642   3 t-inv F
  0.166667  0.000000  0.000000    0.00308642   4 t-inv F
  0.222222  0.000000  0.000000    0.00308642   5 t-inv F
  0.277778  0.000000  0.000000    0.00308642   6 t-inv F
  0.333333  0.000000  0.000000    0.00308642   7 t-inv F
  0.388889  0.000000  0.000000    0.00308642   8 t-inv F
  0.444444  0.000000  0.000000    0.00308642   9 t-inv F
  0.500000  0.000000  0.000000    0.00308642  10 t-inv F
  0.055556  0.055556  0.000000    0.00308642  11 t-inv F
  0.111111  0.055556  0.000000    0.00308642  12 t-inv F
  0.166667  0.055556  0.000000    0.00308642  13 t-inv F
  0.222222  0.055556  0.000000    0.00308642  14 t-inv F
  0.277778  0.055556  0.000000    0.00308642  15 t-inv F
  0.333333  0.055556  0.000000    0.00308642  16 t-inv F
  0.388889  0.055556  0.000000    0.00308642  17 t-inv F
  0.444444  0.055556  0.000000    0.00308642  18 t-inv F
  0.111111  0.111111  0.000000    0.00308642  19 t-inv F
  0.166667  0.111111  0.000000    0.00308642  20 t-inv F
  0.222222  0.111111  0.000000    0.00308642  21 t-inv F
  0.277778  0.111111  0.000000    0.00308642  22 t-inv F
  0.333333  0.111111  0.000000    0.00308642  23 t-inv F
  0.388889  0.111111  0.000000    0.00308642  24 t-inv F
  0.444444  0.111111  0.000000    0.00308642  25 t-inv F
  0.166667  0.166667  0.000000    0.00308642  26 t-inv F
  0.222222  0.166667  0.000000    0.00308642  27 t-inv F
  0.277778  0.166667  0.000000    0.00308642  28 t-inv F
  0.333333  0.166667  0.000000    0.00308642  29 t-inv F
  0.388889  0.166667  0.000000    0.00308642  30 t-inv F
  0.222222  0.222222  0.000000    0.00308642  31 t-inv F
  0.277778  0.222222  0.000000    0.00308642  32 t-inv F
  0.333333  0.222222  0.000000    0.00308642  33 t-inv F
  0.388889  0.222222  0.000000    0.00308642  34 t-inv F
  0.277778  0.277778  0.000000    0.00308642  35 t-inv F
  0.333333  0.277778  0.000000    0.00308642  36 t-inv F
  0.333333  0.333333  0.000000    0.00308642  37 t-inv F
 -0.055556 -0.000000 -0.000000    0.00308642   2 t-inv F
  0.055556 -0.055556 -0.000000    0.00308642   2 t-inv F
 -0.055556  0.055556  0.000000    0.00308642   2 t-inv F
  0.000000 -0.055556  0.000000    0.00308642   2 t-inv F
 -0.000000  0.055556 -0.000000    0.00308642   2 t-inv F
 -0.111111 -0.000000 -0.000000    0.00308642   3 t-inv F
  0.111111 -0.111111 -0.000000    0.00308642   3 t-inv F
 -0.111111  0.111111  0.000000    0.00308642   3 t-inv F
  0.000000 -0.111111  0.000000    0.00308642   3 t-inv F
 -0.000000  0.111111 -0.000000    0.00308642   3 t-inv F
 -0.166667 -0.000000 -0.000000    0.00308642   4 t-inv F
  0.166667 -0.166667 -0.000000    0.00308642   4 t-inv F
 -0.166667  0.166667  0.000000    0.00308642   4 t-inv F
  0.000000 -0.166667  0.000000    0.00308642   4 t-inv F
 -0.000000  0.166667 -0.000000    0.00308642   4 t-inv F
 -0.222222 -0.000000 -0.000000    0.00308642   5 t-inv F
  0.222222 -0.222222 -0.000000    0.00308642   5 t-inv F
 -0.222222  0.222222  0.000000    0.00308642   5 t-inv F
  0.000000 -0.222222  0.000000    0.00308642   5 t-inv F
 -0.000000  0.222222 -0.000000    0.00308642   5 t-inv F
[...]
     27      -1.0013      0.00000
     28      -1.0013      0.00000
     29      -0.1541      0.00000
     30       0.3668      0.00000
     31       0.5642      0.00000
     32       0.5642      0.00000
     33       1.8189      0.00000
     34       1.8189      0.00000
     35       3.6855      0.00000
     36       4.5207      0.00000
     37       4.5207      0.00000
     38       4.5356      0.00000
     39       6.6205      0.00000
     40       6.6205      0.00000
     41       7.5558      0.00000
     42       7.7483      0.00000
     43       7.7483      0.00000
     44       7.9029      0.00000
     45       8.6180      0.00000
     46       8.7836      0.00000
     47       8.7836      0.00000
     48       8.9043      0.00000
     49       8.9043      0.00000
     50       8.9105      0.00000
     51       8.9912      0.00000
     52       9.0688      0.00000
     53       9.0688      0.00000
     54       9.1024      0.00000
     55       9.1025      0.00000
     56       9.1542      0.00000

 soft charge-density along one line, spin component           1
         0         1         2         3         4         5         6         7         8         9
 total charge-density along one line

------------------------ aborting loop because EDIFF is reached ----------------------------------------

  Hirshfeld charges:
            ion         q(e)
      1     Mo          0.310
      2     Mo          0.310
      3     Se         -0.154
      4     Se         -0.155
      5     Se         -0.155
      6     Se         -0.154

  Atomic reference data used in the T-S method for vdW correction:
            C6at              R0at           ALPHAat      REFSTATE
            (au)              (au)            (au)
   Mo       1028.730          4.101         88.420         0
   Se        210.000          4.044         25.000         0

  Tkatchenko/Scheffler method for vdW energy calculation

  Parameters of vdW forcefield:
            C6ts              R0ts           ALPHAts        RELVOL
            (au)              (au)            (au)
   Mo       1086.646          4.138         90.875          1.028
   Mo       1086.646          4.138         90.875          1.028
   Se        215.616          4.062         25.332          1.013
   Se        211.153          4.048         25.068          1.003
   Se        211.153          4.048         25.068          1.003
   Se        215.616          4.062         25.332          1.013

  IVDW =  20
  VDW_RADIUS =    50.000 A
  VDW_IDAMPF =  0
  VDW_S6 =     1.000
  VDW_SR =     0.940
  VDW_D =    20.000
  LVDW_EWALD = T
  Edisp (eV):   -1.60388

  FORCE on cell =-STRESS in cart. coord.  units (eV):
  Direction    XX          YY          ZZ          XY          YZ          ZX
  Alpha Z    54.96674    54.96674    54.96674
  Ewald   61500.11397 61500.11397-64183.45471    -0.00000    -0.00000     0.00000
  Hartree 62380.29277 62380.29277-61871.76473    -0.00000    -0.00000    -0.00000
  E(xc)    -223.67662  -223.67662  -224.11920     0.00000     0.00000    -0.00000
  Local  ************************125102.68401    -0.00009     0.00000    -0.00000
  n-local   105.24821   104.17004   110.37848     1.89941     0.01540    -0.07753
  augment   -22.28710   -22.28700   -24.04138     0.00009     0.00000    -0.00000
  Kinetic  1027.91634  1034.78778  1035.25378   -25.00577     0.04072     0.59992
  Fock        0.00000     0.00000     0.00000     0.00000     0.00000     0.00000
  vdW        -1.65516    -1.65516    -1.40538     0.00000    -0.00000    -0.00000
  Total      -2.35131    -2.35131    -1.50239     0.00000    -0.00000     0.00000
  in kB      -7.89421    -7.89421    -5.04407     0.00000    -0.00000     0.00000

 VOLUME and BASIS-vectors are now :
  energy-cutoff  :      344.91
  volume of cell :      477.21
      direct lattice vectors                 reciprocal lattice vectors
     3.319748788  0.000000000  0.000000000     0.301227612  0.173913843  0.000000000
    -1.659874394  2.874986784  0.000000000     0.000000000  0.347827686  0.000000000
     0.000000000  0.000000000 50.000000000     0.000000000  0.000000000  0.020000000

  length of vectors
     3.319748788  3.319748788 50.000000000     0.347827686  0.347827686  0.020000000

 FORCES acting on ions
    electron-ion (+dipol)            ewald-force                    non-local-force                 convergence-correction
   0.285E-07 0.940E-08 0.256E+04   0.105E-10 -.619E-11 -.256E+04   0.000E+00 0.000E+00 0.148E-01   -.853E-10 0.493E-10 0.182E-05
   -.284E-07 -.927E-08 -.256E+04   -.106E-10 0.610E-11 0.256E+04   -.416E-16 0.000E+00 -.148E-01   0.853E-10 -.493E-10 -.182E-05
   -.114E-06 -.665E-08 0.212E+03   -.538E-11 0.314E-11 -.210E+03   0.347E-17 0.000E+00 -.259E+01   -.310E-13 0.238E-13 0.140E-05
   -.779E-07 -.430E-07 0.198E+04   -.527E-11 0.307E-11 -.198E+04   -.139E-16 0.139E-16 0.257E+01   -.215E-11 0.125E-11 0.444E-06
   0.779E-07 0.430E-07 -.198E+04   0.532E-11 -.307E-11 0.198E+04   0.694E-17 -.139E-16 -.257E+01   0.216E-11 -.125E-11 -.444E-06
   0.114E-06 0.666E-08 -.212E+03   0.543E-11 -.313E-11 0.210E+03   -.347E-17 0.000E+00 0.259E+01   0.311E-13 -.264E-13 -.140E-05
   0.953E-10 0.160E-09 0.570E-10   -.119E-13 -.858E-13 -.512E-12   -.486E-16 0.000E+00 0.000E+00   -.533E-14 0.649E-14 -.994E-12

 POSITION                                       TOTAL-FORCE (eV/Angst)
     -0.00000      0.95833     21.77000        -0.000000      0.000000      0.054070
      1.65987      1.91666     28.23000        -0.000000     -0.000000     -0.054070
      1.65987      1.91666     23.43903         0.000000      0.000000     -0.080667
      1.65987      1.91666     20.10097         0.000000     -0.000000      0.043583
     -0.00000      0.95833     29.89903         0.000000      0.000000     -0.043583
     -0.00000      0.95833     26.56097        -0.000000     -0.000000      0.080667
    total drift:                                0.000000      0.000000      0.000000

  FREE ENERGIE OF THE ION-ELECTRON SYSTEM (eV)
  free  energy   TOTEN  =       -43.10490304 eV

  energy  without entropy=      -43.10490304  energy(sigma->0) =      -43.10490304

 Linear response reoptimize wavefunctions
 Linear response G [H, r] |phi>, progress :
  Direction:   1

[...]

  free energy    TOTEN  =      -208.42403205 eV

[...]

 Linear response G [H, r] |phi>, progress :
  Direction:   2

[...]

 Linear response G [H, r] |phi>, progress :
  Direction:   3

[...]

  free energy    TOTEN  =      -231.70675729 eV

[...]

 Linear response to external field (no local field effect), progress :
  Direction:   1
  LATTYP: Found a hexagonal cell.
 ALAT       =     3.3197487879
 C/A-ratio  =    15.0613806029

[...]

The dynamic configuration has the point symmetry C_2 .

[...]

 Free energy of the ion-electron system (eV)
  -Hartree energ DENC   =         0.00000000
  -V(xc)+E(xc)   XCENC  =         0.00000000
  PAW double counting   =         0.00000000        0.00000000
  entropy T*S    EENTRO =         0.00000000
  eigenvalues    EBANDS =        -4.32959736
  free energy    TOTEN  =        -4.32959736 eV

  energy without entropy =       -4.32959736

[...]

 change of polarisation eV/A/(eV/A) component  1 :    11.304    -0.953    -0.114
 dielectric tensor                  component  1 :     5.286    -0.361    -0.043

[...]

The dynamic configuration has the point symmetry C_1h.

[...]

 Linear response to external field (no local field effect), progress :
  Direction:   3
  LATTYP: Found a hexagonal cell.
 ALAT       =     3.3197487879
 C/A-ratio  =    15.0613806029

[...]

The dynamic configuration has the point symmetry C_1h.
 The point group associated with its full space group is C_3v.

[...]

 HEAD OF MICROSCOPIC STATIC DIELECTRIC TENSOR (INDEPENDENT PARTICLE, excluding Hartree and local field effects)
           5.305098     0.000000    -0.000000
           0.000000     5.305098    -0.000000
           0.000000     0.000000     3.418157

 Linear response to external field, progress :
  Direction:   1
  LATTYP: Found a hexagonal cell.
 ALAT       =     3.3197487879
 C/A-ratio  =    15.0613806029

[...]

The dynamic configuration has the point symmetry C_2 .

[...]

  Parameters of vdW forcefield:
            C6ts              R0ts           ALPHAts        RELVOL
            (au)              (au)            (au)
   Mo       1086.646          4.138         90.875          1.028
   Mo       1086.646          4.138         90.875          1.028
   Se        215.616          4.062         25.332          1.013
   Se        211.153          4.048         25.068          1.003
   Se        211.153          4.048         25.068          1.003
   Se        215.616          4.062         25.332          1.013
  Edisp (eV):   -1.60388

[...]

 PIEZOELECTRIC TENSOR FIELD DIRECTION 1  (e Angst)
    -0.00385  0.00000  0.00000           ( -0.00061  0.00000  0.00000)
     0.00000  0.00479  0.00024           (  0.00000  0.00034  0.00001)
     0.00000  0.00024 -0.00055           (  0.00000  0.00001 -0.00014)

 PIEZOELECTRIC TENSOR FIELD DIRECTION 1  (C/m^2)
    -0.00013  0.00000  0.00000
     0.00000  0.00016  0.00001
     0.00000  0.00001 -0.00002

      POSITION         DIRECTION 1           BORN EFFECTIVE CHARGE    (rigid.aug.   ionic)
     -0.00000      0.95833     21.77000    -1.78025 -0.00002  0.00003 (  0.16874 14.00000)
      1.65987      1.91666     28.23000    -1.78025  0.00002 -0.00003 (  0.16874 14.00000)
      1.65987      1.91666     23.43903     0.86515 -0.00168  0.00018 (  1.12427  6.00000)
      1.65987      1.91666     20.10097     0.88024 -0.00161 -0.00010 (  1.12264  6.00000)
     -0.00000      0.95833     29.89903     0.88024  0.00161  0.00010 (  1.12264  6.00000)
     -0.00000      0.95833     26.56097     0.86515  0.00168 -0.00018 (  1.12427  6.00000)
    total drift (improves with k-points):  -0.06972  0.00000  0.00000

[...]

The dynamic configuration has the point symmetry C_1h.

[...]

 Linear response to external field, progress :
  Direction:   3
  LATTYP: Found a hexagonal cell.
 ALAT       =     3.3197487879
 C/A-ratio  =    15.0613806029

[...]

The dynamic configuration has the point symmetry C_1h.
 The point group associated with its full space group is C_3v.

[...]

----------------------------------------- Iteration    3(  23)  ---------------------------------------

 Broyden mixing:
  rms(total) = 0.56642E-06    rms(broyden)= 0.56565E-06
  rms(prec ) = 0.62367E-06
  weight for this iteration     100.00

 eigenvalues of (default mixing * dielectric matrix)
  average eigenvalue GAMMA=   2.4206
  9.0794  7.6697  5.5287  4.2200  3.0161  3.0161  2.2898  2.2898  1.8984  1.8008
  1.4212  1.1483  1.0563  0.9181  0.9941  0.9637  0.9637  0.7480  0.5400  0.5413
  0.7295

 Free energy of the ion-electron system (eV)
  -Hartree energ DENC   =        -0.31796873
  -V(xc)+E(xc)   XCENC  =         0.00500326
  PAW double counting   =         0.01022143       -0.01012756
  entropy T*S    EENTRO =         0.00000000
  eigenvalues    EBANDS =        -0.07602455
  free energy    TOTEN  =        -0.38889613 eV

  energy without entropy =       -0.38889613

------------------------ aborting loop because EDIFF is reached ----------------------------------------

 change of polarisation eV/A/(eV/A) component  3 :    -0.007     0.001     0.764
 dielectric tensor                  component  3 :    -0.003     0.001     1.290

[...]

  Hirshfeld charges:
            ion         q(e)
      1     Mo          0.310
      2     Mo          0.310
      3     Se         -0.154
      4     Se         -0.155
      5     Se         -0.155
      6     Se         -0.154

  Tkatchenko/Scheffler method for vdW energy calculation

  Parameters of vdW forcefield:
            C6ts              R0ts           ALPHAts        RELVOL
            (au)              (au)            (au)
   Mo       1086.646          4.138         90.875          1.028
   Mo       1086.646          4.138         90.875          1.028
   Se        215.616          4.062         25.332          1.013
   Se        211.153          4.048         25.068          1.003
   Se        211.153          4.048         25.068          1.003
   Se        215.616          4.062         25.332          1.013
  Edisp (eV):   -1.60388

 PIEZOELECTRIC TENSOR FIELD DIRECTION 3  (e Angst)
     0.00044 -0.00000  0.00000           ( -0.00000  0.00000  0.00000)
     0.00000  0.00044 -0.00000           (  0.00000 -0.00000  0.00000)
     0.00000 -0.00000 -0.00052           (  0.00000  0.00000  0.00001)

 PIEZOELECTRIC TENSOR FIELD DIRECTION 3  (C/m^2)
     0.00001 -0.00000  0.00000
     0.00000  0.00001 -0.00000
     0.00000 -0.00000 -0.00002

      POSITION         DIRECTION 3           BORN EFFECTIVE CHARGE    (rigid.aug.   ionic)
     -0.00000      0.95833     21.77000    -0.00000  0.00000 -5.67200 (  0.16874 14.00000)
      1.65987      1.91666     28.23000    -0.00000  0.00000 -5.67139 (  0.16874 14.00000)
      1.65987      1.91666     23.43903    -0.00000  0.00000  0.08002 (  1.12427  6.00000)
      1.65987      1.91666     20.10097     0.00000  0.00000  0.22861 (  1.12264  6.00000)
     -0.00000      0.95833     29.89903     0.00000 -0.00000  0.22373 (  1.12264  6.00000)
     -0.00000      0.95833     26.56097     0.00000  0.00000  0.06844 (  1.12427  6.00000)
    total drift (improves with k-points):   0.00000  0.00000-10.74259

[...]

 MACROSCOPIC STATIC DIELECTRIC TENSOR (including local field effects in DFT)
           5.086098     0.000000    -0.000000
          -0.000000     5.086098    -0.000000
           0.000000     0.000000     1.289519

  LATTYP: Found a hexagonal cell.
 ALAT       =     3.3197487879
 C/A-ratio  =    15.0613806029

  Lattice vectors:

 A1 = (   3.3197487879,   0.0000000000,   0.0000000000)
 A2 = (  -1.6598743939,   2.8749867845,   0.0000000000)
 A3 = (   0.0000000000,   0.0000000000,  50.0000000000)

Analysis of symmetry for initial positions (statically):
 Subroutine PRICEL returns:
 Original cell was already a primitive cell.

[...]

The static configuration has the point symmetry C_2h.
 The point group associated with its full space group is D_3d.

Analysis of symmetry for dynamics (positions and initial velocities):
 Subroutine PRICEL returns:
 Original cell was already a primitive cell.

 Routine SETGRP: Setting up the symmetry group for a
 hexagonal supercell.

 Subroutine GETGRP returns: Found 12 space group operations
 (whereof  4 operations were pure point group operations)
 out of a pool of 24 trial point group operations.

The dynamic configuration has the point symmetry C_2h.
 The point group associated with its full space group is D_3d.

 Subroutine INISYM returns: Found 12 space group operations
 (whereof  4 operations are pure point group operations),
 and found     1 'primitive' translations

 MACROSCOPIC STATIC DIELECTRIC TENSOR (including local field effects in DFT)
           5.086098     0.000000    -0.000000
          -0.000000     5.086098    -0.000000
           0.000000     0.000000     1.289519

 PIEZOELECTRIC TENSOR  for field in x, y, z        (e  Angst)
          XX          YY          ZZ          XY          YZ          ZX
  x    -0.00385     0.00479    -0.00055     0.00000     0.00024     0.00000
  y    -0.00465     0.00833     0.00006     0.00000     0.00030     0.00000
  z     0.00044     0.00044    -0.00052     0.00000    -0.00000     0.00000

 PIEZOELECTRIC TENSOR  for field in x, y, z        (C/m^2)
          XX          YY          ZZ          XY          YZ          ZX
  x     0.00000     0.00000     0.00000     0.00000     0.00000     0.00000
  y     0.00000     0.00000     0.00000     0.00000     0.00000     0.00000
  z     0.00000     0.00000     0.00000     0.00000     0.00000     0.00000

 BORN EFFECTIVE CHARGES (in e, cummulative output)
 ion    1
    1    -1.78025    -0.00002     0.00003
    2     0.00000    -1.78073    -0.00005
    3    -0.00000     0.00000    -5.67200
 ion    2
    1    -1.78025     0.00002    -0.00003
    2     0.00000    -1.77972     0.00006
    3    -0.00000     0.00000    -5.67139
 ion    3
    1     0.86515    -0.00168     0.00018
    2    -0.00000     0.86553     0.00113
    3    -0.00000     0.00000     0.08002
 ion    4
    1     0.88024    -0.00161    -0.00010
    2     0.00000     0.88056    -0.00067
    3     0.00000     0.00000     0.22861
 ion    5
    1     0.88024     0.00161     0.00010
    2     0.00000     0.87992     0.00067
    3     0.00000    -0.00000     0.22373
 ion    6
    1     0.86515     0.00168    -0.00018
    2    -0.00000     0.86479    -0.00112
    3     0.00000     0.00000     0.06844

 writing wavefunctions
 BZINTS: Fermi energy: -2.172731; 52.000000 electrons
         Band energy:-967.724448;  BLOECHL correction:  0.000000