 vasp.5.4.1 24Jun15 (build Apr 13 2016 13:07:19) complex

 executed on           IFC91_ompi date 2019.09.13  18:13:47

 INCAR:
 POTCAR:    PAW_PBE Mo_sv_GW 05Dec2013
 POTCAR:    PAW_PBE S_GW 19Mar2012

 POTCAR:    PAW_PBE Mo_sv_GW 05Dec2013
   VRHFIN =Mo: 4s4p5s4d

   TITEL  = PAW_PBE Mo_sv_GW 05Dec2013
   POMASS =   95.940; ZVAL   =   14.000    mass and valenz
   ENMAX  =  344.914; ENMIN  =  258.686 eV

 POTCAR:    PAW_PBE S_GW 19Mar2012
   VRHFIN =S : s2p4

   TITEL  = PAW_PBE S_GW 19Mar2012
   POMASS =   32.066; ZVAL   =    6.000    mass and valenz
   ENMAX  =  258.689; ENMIN  =  194.016 eV

  PAW_PBE Mo_sv_GW 05Dec2013            :
  PAW_PBE S_GW 19Mar2012                :

 POSCAR: Mo  S
  positions in cartesian coordinates
 exchange correlation table for  LEXCH =        8
   RHO(1)=    0.500       N(1)  =     2000
   RHO(2)=  100.500       N(2)  =     4000

 ion  position               nearest neighbor table
   1  0.167  0.333  0.316-   5 2.41   6 2.41   5 2.41   6 2.41   5 2.41   6 2.41
   2  0.833  0.667  0.438-   7 2.41   8 2.41   7 2.41   8 2.41   7 2.41   8 2.41
   3  0.167  0.333  0.562-   9 2.41  10 2.41   9 2.41  10 2.41   9 2.41  10 2.41
   4  0.833  0.667  0.684-  11 2.41  12 2.41  11 2.41  12 2.41  11 2.41  12 2.41
   5  0.833  0.667  0.347-   1 2.41   1 2.41   1 2.41
   6  0.833  0.667  0.284-   1 2.41   1 2.41   1 2.41
   7  0.167  0.333  0.470-   2 2.41   2 2.41   2 2.41
   8  0.167  0.333  0.407-   2 2.41   2 2.41   2 2.41
   9  0.833  0.667  0.593-   3 2.41   3 2.41   3 2.41
  10  0.833  0.667  0.530-   3 2.41   3 2.41   3 2.41
  11  0.167  0.333  0.716-   4 2.41   4 2.41   4 2.41
  12  0.167  0.333  0.653-   4 2.41   4 2.41   4 2.41

  LATTYP: Found a hexagonal cell.
 ALAT       =     3.1840664647
 C/A-ratio  =    15.7031897903

  Lattice vectors:

 A1 = (   3.1840664647,   0.0000000000,   0.0000000000)
 A2 = (  -1.5920332323,   2.7574824458,   0.0000000000)
 A3 = (   0.0000000000,   0.0000000000,  50.0000000000)

Analysis of symmetry for initial positions (statically):
 Subroutine PRICEL returns:
 Original cell was already a primitive cell.

 Routine SETGRP: Setting up the symmetry group for a
 hexagonal supercell.

 Subroutine GETGRP returns: Found 12 space group operations
 (whereof  4 operations were pure point group operations)
 out of a pool of 24 trial point group operations.

The static configuration has the point symmetry C_2h.
 The point group associated with its full space group is D_3d.

Analysis of symmetry for dynamics (positions and initial velocities):
 Subroutine PRICEL returns:
 Original cell was already a primitive cell.

[...]

The dynamic configuration has the point symmetry C_2h.
 The point group associated with its full space group is D_3d.

 Subroutine INISYM returns: Found 12 space group operations
 (whereof  4 operations are pure point group operations),
 and found     1 'primitive' translations

 KPOINTS: KPOINTS created by Atomic Simulation Env

Automatic generation of k-mesh.
Space group operators:
 irot       det(A)        alpha          n_x          n_y          n_z        tau_x        tau_y        tau_z
    1     1.000000     0.000000     1.000000     0.000000     0.000000     0.000000     0.000000     0.000000
    2    -1.000000     0.000000     1.000000     0.000000     0.000000     0.000000     0.000000     0.000000
    3     1.000000   180.000000     1.000000     0.000000     0.000000     0.000000     0.000000     0.000000
    4    -1.000000   180.000000     1.000000     0.000000     0.000000     0.000000     0.000000     0.000000
    5     1.000000   120.000000     0.000000     0.000000    -1.000000     0.500000     0.500000     0.000000
    6    -1.000000   120.000000     0.000000     0.000000    -1.000000     0.500000     0.500000     0.000000
    7     1.000000   120.000000     0.000000     0.000000     1.000000     0.000000     0.500000     0.000000
    8    -1.000000   120.000000     0.000000     0.000000     1.000000     0.000000     0.500000     0.000000
    9     1.000000   180.000000     0.500000    -0.866025     0.000000     0.000000     0.500000     0.000000
   10    -1.000000   180.000000     0.500000    -0.866025     0.000000     0.000000     0.500000     0.000000
   11     1.000000   180.000000    -0.500000    -0.866025     0.000000     0.500000     0.500000     0.000000
   12    -1.000000   180.000000    -0.500000    -0.866025     0.000000     0.500000     0.500000     0.000000

 Subroutine IBZKPT returns following result:

 Found     37 irreducible k-points:

 Following reciprocal coordinates:
            Coordinates               Weight
  0.000000  0.000000  0.000000      1.000000
  0.055556  0.000000  0.000000      6.000000
  0.111111  0.000000  0.000000      6.000000
  0.166667  0.000000  0.000000      6.000000
  0.222222  0.000000  0.000000      6.000000
  0.277778  0.000000  0.000000      6.000000
  0.333333  0.000000  0.000000      6.000000
  0.388889  0.000000  0.000000      6.000000
  0.444444  0.000000  0.000000      6.000000
  0.500000  0.000000  0.000000      3.000000
  0.055556  0.055556  0.000000      6.000000
  0.111111  0.055556  0.000000     12.000000
  0.166667  0.055556  0.000000     12.000000
  0.222222  0.055556  0.000000     12.000000
  0.277778  0.055556  0.000000     12.000000
  0.333333  0.055556  0.000000     12.000000
  0.388889  0.055556  0.000000     12.000000
  0.444444  0.055556  0.000000     12.000000
  0.111111  0.111111  0.000000      6.000000
  0.166667  0.111111  0.000000     12.000000
  0.222222  0.111111  0.000000     12.000000
  0.277778  0.111111  0.000000     12.000000
  0.333333  0.111111  0.000000     12.000000
  0.388889  0.111111  0.000000     12.000000
  0.444444  0.111111  0.000000      6.000000
  0.166667  0.166667  0.000000      6.000000
  0.222222  0.166667  0.000000     12.000000
  0.277778  0.166667  0.000000     12.000000
  0.333333  0.166667  0.000000     12.000000
  0.388889  0.166667  0.000000     12.000000
  0.222222  0.222222  0.000000      6.000000
  0.277778  0.222222  0.000000     12.000000
  0.333333  0.222222  0.000000     12.000000
  0.388889  0.222222  0.000000      6.000000
  0.277778  0.277778  0.000000      6.000000
  0.333333  0.277778  0.000000     12.000000
  0.333333  0.333333  0.000000      2.000000

 Following cartesian coordinates:
            Coordinates               Weight
  0.000000  0.000000  0.000000      1.000000
  0.017448  0.010074  0.000000      6.000000
  0.034896  0.020147  0.000000      6.000000
  0.052344  0.030221  0.000000      6.000000
  0.069792  0.040294  0.000000      6.000000
  0.087240  0.050368  0.000000      6.000000
  0.104688  0.060442  0.000000      6.000000
  0.122136  0.070515  0.000000      6.000000
  0.139584  0.080589  0.000000      6.000000
  0.157032  0.090662  0.000000      3.000000
  0.017448  0.030221  0.000000      6.000000
  0.034896  0.040294  0.000000     12.000000
  0.052344  0.050368  0.000000     12.000000
  0.069792  0.060442  0.000000     12.000000
  0.087240  0.070515  0.000000     12.000000
  0.104688  0.080589  0.000000     12.000000
  0.122136  0.090662  0.000000     12.000000
  0.139584  0.100736  0.000000     12.000000
  0.034896  0.060442  0.000000      6.000000
  0.052344  0.070515  0.000000     12.000000
  0.069792  0.080589  0.000000     12.000000
  0.087240  0.090662  0.000000     12.000000
  0.104688  0.100736  0.000000     12.000000
  0.122136  0.110810  0.000000     12.000000
  0.139584  0.120883  0.000000      6.000000
  0.052344  0.090662  0.000000      6.000000
  0.069792  0.100736  0.000000     12.000000
  0.087240  0.110810  0.000000     12.000000
  0.104688  0.120883  0.000000     12.000000
  0.122136  0.130957  0.000000     12.000000
  0.069792  0.120883  0.000000      6.000000
  0.087240  0.130957  0.000000     12.000000
  0.104688  0.141030  0.000000     12.000000
  0.122136  0.151104  0.000000      6.000000
  0.087240  0.151104  0.000000      6.000000
  0.104688  0.161178  0.000000     12.000000
  0.104688  0.181325  0.000000      2.000000

 TETIRR: Found    169 inequivalent tetrahedra from     1944

 Subroutine IBZKPT_HF returns following result:

 Found    324 k-points in 1st BZ
 the following    324 k-points will be used (e.g. in the exchange kernel)
 Following reciprocal coordinates:   # in IRBZ
  0.000000  0.000000  0.000000    0.00308642   1 t-inv F
  0.055556  0.000000  0.000000    0.00308642   2 t-inv F
  0.111111  0.000000  0.000000    0.00308642   3 t-inv F
  0.166667  0.000000  0.000000    0.00308642   4 t-inv F
  0.222222  0.000000  0.000000    0.00308642   5 t-inv F
  0.277778  0.000000  0.000000    0.00308642   6 t-inv F
  0.333333  0.000000  0.000000    0.00308642   7 t-inv F
  0.388889  0.000000  0.000000    0.00308642   8 t-inv F
  0.444444  0.000000  0.000000    0.00308642   9 t-inv F
  0.500000  0.000000  0.000000    0.00308642  10 t-inv F
  0.055556  0.055556  0.000000    0.00308642  11 t-inv F
  0.111111  0.055556  0.000000    0.00308642  12 t-inv F
  0.166667  0.055556  0.000000    0.00308642  13 t-inv F
  0.222222  0.055556  0.000000    0.00308642  14 t-inv F
  0.277778  0.055556  0.000000    0.00308642  15 t-inv F
  0.333333  0.055556  0.000000    0.00308642  16 t-inv F
  0.388889  0.055556  0.000000    0.00308642  17 t-inv F
  0.444444  0.055556  0.000000    0.00308642  18 t-inv F
  0.111111  0.111111  0.000000    0.00308642  19 t-inv F
  0.166667  0.111111  0.000000    0.00308642  20 t-inv F
  0.222222  0.111111  0.000000    0.00308642  21 t-inv F
  0.277778  0.111111  0.000000    0.00308642  22 t-inv F
  0.333333  0.111111  0.000000    0.00308642  23 t-inv F
  0.388889  0.111111  0.000000    0.00308642  24 t-inv F
  0.444444  0.111111  0.000000    0.00308642  25 t-inv F
  0.166667  0.166667  0.000000    0.00308642  26 t-inv F
  0.222222  0.166667  0.000000    0.00308642  27 t-inv F
  0.277778  0.166667  0.000000    0.00308642  28 t-inv F
  0.333333  0.166667  0.000000    0.00308642  29 t-inv F
  0.388889  0.166667  0.000000    0.00308642  30 t-inv F
  0.222222  0.222222  0.000000    0.00308642  31 t-inv F
  0.277778  0.222222  0.000000    0.00308642  32 t-inv F
  0.333333  0.222222  0.000000    0.00308642  33 t-inv F
  0.388889  0.222222  0.000000    0.00308642  34 t-inv F
  0.277778  0.277778  0.000000    0.00308642  35 t-inv F
  0.333333  0.277778  0.000000    0.00308642  36 t-inv F
  0.333333  0.333333  0.000000    0.00308642  37 t-inv F
 -0.055556 -0.000000 -0.000000    0.00308642   2 t-inv F
  0.055556 -0.055556 -0.000000    0.00308642   2 t-inv F
 -0.055556  0.055556  0.000000    0.00308642   2 t-inv F
  0.000000 -0.055556  0.000000    0.00308642   2 t-inv F
 -0.000000  0.055556 -0.000000    0.00308642   2 t-inv F
 -0.111111 -0.000000 -0.000000    0.00308642   3 t-inv F
  0.111111 -0.111111 -0.000000    0.00308642   3 t-inv F
 -0.111111  0.111111  0.000000    0.00308642   3 t-inv F
  0.000000 -0.111111  0.000000    0.00308642   3 t-inv F
 -0.000000  0.111111 -0.000000    0.00308642   3 t-inv F
 -0.166667 -0.000000 -0.000000    0.00308642   4 t-inv F
  0.166667 -0.166667 -0.000000    0.00308642   4 t-inv F
 -0.166667  0.166667  0.000000    0.00308642   4 t-inv F
  0.000000 -0.166667  0.000000    0.00308642   4 t-inv F
[...]
     3.184066465  3.184066465 50.000000000     0.362649634  0.362649634  0.020000000

 FORCES acting on ions
    electron-ion (+dipol)            ewald-force                    non-local-force                 convergence-correction
   0.125E-07 0.730E-08 0.572E+04   0.124E-10 -.707E-11 -.572E+04   -.625E-16 0.139E-16 0.153E-01   -.154E-09 0.892E-10 0.777E-06
   -.183E-07 0.567E-08 0.191E+04   -.123E-10 0.709E-11 -.191E+04   0.139E-16 0.000E+00 -.337E-04   0.165E-09 -.954E-10 -.602E-06
   0.185E-07 -.572E-08 -.191E+04   0.123E-10 -.700E-11 0.191E+04   -.416E-16 -.278E-16 0.337E-04   -.165E-09 0.954E-10 0.602E-06
   -.123E-07 -.735E-08 -.572E+04   -.123E-10 0.709E-11 0.572E+04   0.139E-16 0.139E-16 -.153E-01   0.154E-09 -.892E-10 -.777E-06
   -.174E-06 0.494E-07 0.169E+04   -.628E-11 0.360E-11 -.168E+04   -.208E-16 0.139E-16 -.775E+01   -.196E-11 0.113E-11 0.231E-06
   -.268E-06 0.147E-07 0.321E+04   -.617E-11 0.355E-11 -.322E+04   0.486E-16 0.000E+00 0.772E+01   0.282E-11 -.165E-11 0.678E-06
   0.797E-07 -.900E-07 0.523E+02   0.629E-11 -.359E-11 -.446E+02   0.278E-16 0.278E-16 -.775E+01   -.261E-11 0.153E-11 -.321E-06
   0.610E-07 -.140E-06 0.158E+04   0.619E-11 -.357E-11 -.159E+04   -.416E-16 -.278E-16 0.774E+01   0.448E-12 -.247E-12 0.716E-07
   -.610E-07 0.140E-06 -.158E+04   -.619E-11 0.355E-11 0.159E+04   0.694E-17 0.278E-16 -.774E+01   -.447E-12 0.247E-12 -.716E-07
   -.797E-07 0.900E-07 -.523E+02   -.628E-11 0.361E-11 0.446E+02   -.555E-16 0.000E+00 0.775E+01   0.261E-11 -.153E-11 0.321E-06
   0.268E-06 -.147E-07 -.321E+04   0.617E-11 -.353E-11 0.322E+04   0.208E-16 0.000E+00 -.772E+01   -.282E-11 0.165E-11 -.678E-06
   0.174E-06 -.494E-07 -.169E+04   0.629E-11 -.359E-11 0.168E+04   -.694E-17 0.139E-16 0.775E+01   0.196E-11 -.113E-11 -.231E-06
   0.309E-09 -.129E-09 0.169E-09   0.627E-13 0.153E-12 -.682E-12   -.971E-16 0.555E-16 0.000E+00   0.534E-13 0.158E-13 -.164E-10

 POSITION                                       TOTAL-FORCE (eV/Angst)
     -0.00000      0.91916     15.77500        -0.000000     -0.000000      0.083454
      1.59203      1.83832     21.92500        -0.000000     -0.000000      0.002579
     -0.00000      0.91916     28.07500        -0.000000     -0.000000     -0.002579
      1.59203      1.83832     34.22500        -0.000000      0.000000     -0.083454
      1.59203      1.83832     17.33856        -0.000000     -0.000000     -0.092779
      1.59203      1.83832     14.21144         0.000000     -0.000000      0.042774
     -0.00000      0.91916     23.48856         0.000000      0.000000     -0.106576
     -0.00000      0.91916     20.36144         0.000000      0.000000      0.107928
      1.59203      1.83832     29.63856         0.000000     -0.000000     -0.107928
      1.59203      1.83832     26.51144        -0.000000      0.000000      0.106576
     -0.00000      0.91916     35.78856        -0.000000      0.000000     -0.042774
     -0.00000      0.91916     32.66144         0.000000      0.000000      0.092779
    total drift:                                0.000000     -0.000000      0.000000

  FREE ENERGIE OF THE ION-ELECTRON SYSTEM (eV)
  free  energy   TOTEN  =       -93.76157612 eV

  energy  without entropy=      -93.76157612  energy(sigma->0) =      -93.76157612

 Linear response reoptimize wavefunctions
 Linear response G [H, r] |phi>, progress :
  Direction:   1

[...]

  free energy    TOTEN  =      -399.06677712 eV

[...]

 Linear response G [H, r] |phi>, progress :
  Direction:   2

[...]

 Linear response G [H, r] |phi>, progress :
  Direction:   3

[...]

  free energy    TOTEN  =      -434.96560268 eV

[...]

 Linear response to external field (no local field effect), progress :
  Direction:   1
  LATTYP: Found a hexagonal cell.
 ALAT       =     3.1840664647
 C/A-ratio  =    15.7031897903

[...]

The dynamic configuration has the point symmetry C_2 .

[...]

 Free energy of the ion-electron system (eV)
  -Hartree energ DENC   =         0.00000000
  -V(xc)+E(xc)   XCENC  =         0.00000000
  PAW double counting   =         0.00000000        0.00000000
  entropy T*S    EENTRO =         0.00000000
  eigenvalues    EBANDS =        -7.28182790
  free energy    TOTEN  =        -7.28182790 eV

  energy without entropy =       -7.28182790

[...]

 change of polarisation eV/A/(eV/A) component  1 :    18.337    -2.126    -0.068
 dielectric tensor                  component  1 :     8.558    -0.876    -0.028

[...]

The dynamic configuration has the point symmetry C_1h.

[...]

 Linear response to external field (no local field effect), progress :
  Direction:   3
  LATTYP: Found a hexagonal cell.
 ALAT       =     3.1840664647
 C/A-ratio  =    15.7031897903

[...]

The dynamic configuration has the point symmetry C_1h.
 The point group associated with its full space group is C_3v.

[...]

 HEAD OF MICROSCOPIC STATIC DIELECTRIC TENSOR (INDEPENDENT PARTICLE, excluding Hartree and local field effects)
           8.504487    -0.000000    -0.000000
           0.000000     8.504487     0.000000
           0.000000     0.000000     5.188703

 Linear response to external field, progress :
  Direction:   1
  LATTYP: Found a hexagonal cell.
 ALAT       =     3.1840664647
 C/A-ratio  =    15.7031897903

[...]

The dynamic configuration has the point symmetry C_2 .

[...]

  Parameters of vdW forcefield:
            C6ts              R0ts           ALPHAts        RELVOL
            (au)              (au)            (au)
   Mo       1059.769          4.121         89.744          1.015
   Mo       1070.541          4.128         90.199          1.020
   Mo       1070.541          4.128         90.199          1.020
   Mo       1059.769          4.121         89.744          1.015
   S         136.635          3.868         19.792          1.010
   S         133.851          3.854         19.589          0.999
   S         136.638          3.868         19.792          1.010
   S         136.632          3.868         19.792          1.010
   S         136.632          3.868         19.792          1.010
   S         136.638          3.868         19.792          1.010
   S         133.851          3.854         19.589          0.999
   S         136.635          3.868         19.792          1.010
  Edisp (eV):   -3.49294

[...]

 PIEZOELECTRIC TENSOR FIELD DIRECTION 1  (e Angst)
    -0.00704  0.00000  0.00000           ( -0.00093  0.00000  0.00000)
     0.00000  0.00858  0.00015           (  0.00000  0.00060  0.00001)
     0.00000  0.00015 -0.00123           (  0.00000  0.00001 -0.00021)

 PIEZOELECTRIC TENSOR FIELD DIRECTION 1  (C/m^2)
    -0.00026  0.00000  0.00000
     0.00000  0.00031  0.00001
     0.00000  0.00001 -0.00004

      POSITION         DIRECTION 1           BORN EFFECTIVE CHARGE    (rigid.aug.   ionic)
     -0.00000      0.91916     15.77500    -1.00316 -0.00019  0.00003 (  0.17437 14.00000)
      1.59203      1.83832     21.92500    -0.99458  0.00013  0.00000 (  0.17425 14.00000)
     -0.00000      0.91916     28.07500    -0.99458 -0.00013 -0.00000 (  0.17425 14.00000)
      1.59203      1.83832     34.22500    -1.00316  0.00019 -0.00003 (  0.17437 14.00000)
      1.59203      1.83832     17.33856     0.47780 -0.00146  0.00015 (  0.66111  6.00000)
      1.59203      1.83832     14.21144     0.50093 -0.00140 -0.00008 (  0.66041  6.00000)
     -0.00000      0.91916     23.48856     0.48479  0.00149  0.00015 (  0.66112  6.00000)
     -0.00000      0.91916     20.36144     0.48518  0.00150 -0.00016 (  0.66112  6.00000)
      1.59203      1.83832     29.63856     0.48518 -0.00150  0.00016 (  0.66112  6.00000)
      1.59203      1.83832     26.51144     0.48479 -0.00149 -0.00015 (  0.66112  6.00000)
     -0.00000      0.91916     35.78856     0.50093  0.00140  0.00008 (  0.66041  6.00000)
     -0.00000      0.91916     32.66144     0.47780  0.00146 -0.00015 (  0.66111  6.00000)
    total drift (improves with k-points):  -0.09807  0.00000  0.00000

[...]

The dynamic configuration has the point symmetry C_1h.

[...]

 Linear response to external field, progress :
  Direction:   3
  LATTYP: Found a hexagonal cell.
 ALAT       =     3.1840664647
 C/A-ratio  =    15.7031897903

[...]

The dynamic configuration has the point symmetry C_1h.
 The point group associated with its full space group is C_3v.

[...]

----------------------------------------- Iteration    3(  24)  ---------------------------------------

 Broyden mixing:
  rms(total) = 0.67454E-06    rms(broyden)= 0.67426E-06
  rms(prec ) = 0.77073E-06
  weight for this iteration     100.00

 eigenvalues of (default mixing * dielectric matrix)
  average eigenvalue GAMMA=   2.1874
  9.1819  6.9839  4.8464  3.5488  2.8582  2.8582  2.2347  2.1577  1.7954  1.4339
  1.4339  1.1236  0.9320  0.9320  0.8792  0.8792  0.9060  0.6948  0.5798  0.6764
  0.5932  0.5926

 Free energy of the ion-electron system (eV)
  -Hartree energ DENC   =        -0.66149444
  -V(xc)+E(xc)   XCENC  =         0.00854965
  PAW double counting   =         0.02453401       -0.02456112
  entropy T*S    EENTRO =         0.00000000
  eigenvalues    EBANDS =        -0.22050925
  free energy    TOTEN  =        -0.87348115 eV

  energy without entropy =       -0.87348115

------------------------ aborting loop because EDIFF is reached ----------------------------------------

 change of polarisation eV/A/(eV/A) component  3 :    -0.009     0.002     1.713
 dielectric tensor                  component  3 :    -0.004     0.001     1.706

[...]

  Hirshfeld charges:
            ion         q(e)
      1     Mo          0.374
      2     Mo          0.372
      3     Mo          0.372
      4     Mo          0.374
      5     S          -0.186
      6     S          -0.187
      7     S          -0.186
      8     S          -0.186
      9     S          -0.186
     10     S          -0.186
     11     S          -0.187
     12     S          -0.186

  Tkatchenko/Scheffler method for vdW energy calculation

  Parameters of vdW forcefield:
            C6ts              R0ts           ALPHAts        RELVOL
            (au)              (au)            (au)
   Mo       1059.769          4.121         89.744          1.015
   Mo       1070.541          4.128         90.199          1.020
   Mo       1070.541          4.128         90.199          1.020
   Mo       1059.769          4.121         89.744          1.015
   S         136.635          3.868         19.792          1.010
   S         133.851          3.854         19.589          0.999
   S         136.638          3.868         19.792          1.010
   S         136.632          3.868         19.792          1.010
   S         136.632          3.868         19.792          1.010
   S         136.638          3.868         19.792          1.010
   S         133.851          3.854         19.589          0.999
   S         136.635          3.868         19.792          1.010
  Edisp (eV):   -3.49294

 PIEZOELECTRIC TENSOR FIELD DIRECTION 3  (e Angst)
    -0.08120 -0.00000 -0.00000           ( -0.00000  0.00000 -0.00000)
     0.00000 -0.08120 -0.00000           (  0.00000 -0.00000 -0.00000)
    -0.00000 -0.00000  0.03887           ( -0.00000 -0.00000  0.00001)

 PIEZOELECTRIC TENSOR FIELD DIRECTION 3  (C/m^2)
    -0.00296 -0.00000 -0.00000
     0.00000 -0.00296 -0.00000
    -0.00000 -0.00000  0.00142

      POSITION         DIRECTION 3           BORN EFFECTIVE CHARGE    (rigid.aug.   ionic)
     -0.00000      0.91916     15.77500     0.00000 -0.00000-34.42611 (  0.17437 14.00000)
      1.59203      1.83832     21.92500    -0.00000  0.00000 -3.80804 (  0.17425 14.00000)
     -0.00000      0.91916     28.07500    -0.00000 -0.00000 -3.80861 (  0.17425 14.00000)
      1.59203      1.83832     34.22500    -0.00000  0.00000-34.43411 (  0.17437 14.00000)
      1.59203      1.83832     17.33856     0.00000 -0.00000 -1.51812 (  0.66111  6.00000)
      1.59203      1.83832     14.21144    -0.00000  0.00000  2.79584 (  0.66041  6.00000)
     -0.00000      0.91916     23.48856     0.00000 -0.00000  0.02081 (  0.66112  6.00000)
     -0.00000      0.91916     20.36144    -0.00000  0.00000  0.50352 (  0.66112  6.00000)
      1.59203      1.83832     29.63856    -0.00000  0.00000  0.63204 (  0.66112  6.00000)
      1.59203      1.83832     26.51144    -0.00000 -0.00000  0.07958 (  0.66112  6.00000)
     -0.00000      0.91916     35.78856    -0.00000  0.00000  2.76937 (  0.66041  6.00000)
     -0.00000      0.91916     32.66144     0.00000 -0.00000 -1.63950 (  0.66111  6.00000)
    total drift (improves with k-points):  -0.00000 -0.00000-72.83332

[...]

 MACROSCOPIC STATIC DIELECTRIC TENSOR (including local field effects in DFT)
           8.072860     0.000000     0.000000
           0.000000     8.072860    -0.000000
          -0.000000     0.000000     1.706141

  LATTYP: Found a hexagonal cell.
 ALAT       =     3.1840664647
 C/A-ratio  =    15.7031897903

  Lattice vectors:

 A1 = (   3.1840664647,   0.0000000000,   0.0000000000)
 A2 = (  -1.5920332323,   2.7574824458,   0.0000000000)
 A3 = (   0.0000000000,   0.0000000000,  50.0000000000)

Analysis of symmetry for initial positions (statically):
 Subroutine PRICEL returns:
 Original cell was already a primitive cell.

[...]

The static configuration has the point symmetry C_2h.
 The point group associated with its full space group is D_3d.

Analysis of symmetry for dynamics (positions and initial velocities):
 Subroutine PRICEL returns:
 Original cell was already a primitive cell.

 Routine SETGRP: Setting up the symmetry group for a
 hexagonal supercell.

 Subroutine GETGRP returns: Found 12 space group operations
 (whereof  4 operations were pure point group operations)
 out of a pool of 24 trial point group operations.

The dynamic configuration has the point symmetry C_2h.
 The point group associated with its full space group is D_3d.

 Subroutine INISYM returns: Found 12 space group operations
 (whereof  4 operations are pure point group operations),
 and found     1 'primitive' translations

 MACROSCOPIC STATIC DIELECTRIC TENSOR (including local field effects in DFT)
           8.072860     0.000000     0.000000
           0.000000     8.072860    -0.000000
          -0.000000     0.000000     1.706141

 PIEZOELECTRIC TENSOR  for field in x, y, z        (e  Angst)
          XX          YY          ZZ          XY          YZ          ZX
  x    -0.00704     0.00858    -0.00123     0.00000     0.00015     0.00000
  y    -0.00905     0.01543    -0.00093     0.00000     0.00014     0.00000
  z    -0.08120    -0.08120     0.03887     0.00000    -0.00000    -0.00000

 PIEZOELECTRIC TENSOR  for field in x, y, z        (C/m^2)
          XX          YY          ZZ          XY          YZ          ZX
  x     0.00000     0.00000     0.00000     0.00000     0.00000     0.00000
  y     0.00000     0.00000     0.00000     0.00000     0.00000     0.00000
  z     0.00000     0.00000     0.00000     0.00000     0.00000     0.00000

 BORN EFFECTIVE CHARGES (in e, cummulative output)
 ion    1
    1    -1.00316    -0.00019     0.00003
    2     0.00000    -1.00379     0.00000
    3     0.00000    -0.00000   -34.42611
 ion    2
    1    -0.99458     0.00013     0.00000
    2    -0.00000    -0.99387    -0.00001
    3    -0.00000     0.00000    -3.80804
 ion    3
    1    -0.99458    -0.00013    -0.00000
    2     0.00000    -0.99527     0.00001
    3    -0.00000    -0.00000    -3.80861
 ion    4
    1    -1.00316     0.00019    -0.00003
    2    -0.00000    -1.00251     0.00000
    3    -0.00000     0.00000   -34.43411
 ion    5
    1     0.47780    -0.00146     0.00015
    2     0.00000     0.47821     0.00087
    3     0.00000    -0.00000    -1.51812
 ion    6
    1     0.50093    -0.00140    -0.00008
    2    -0.00000     0.50130    -0.00057
    3    -0.00000     0.00000     2.79584
 ion    7
    1     0.48479     0.00149     0.00015
    2    -0.00000     0.48437     0.00083
    3     0.00000    -0.00000     0.02081
 ion    8
    1     0.48518     0.00150    -0.00016
    2     0.00000     0.48474    -0.00083
    3    -0.00000     0.00000     0.50352
 ion    9
    1     0.48518    -0.00150     0.00016
    2    -0.00000     0.48562     0.00083
    3    -0.00000     0.00000     0.63204
 ion   10
    1     0.48479    -0.00149    -0.00015
    2    -0.00000     0.48521    -0.00084
    3    -0.00000    -0.00000     0.07958
 ion   11
    1     0.50093     0.00140     0.00008
    2     0.00000     0.50055     0.00056
    3    -0.00000     0.00000     2.76937
 ion   12
    1     0.47780     0.00146    -0.00015
    2     0.00000     0.47738    -0.00086
    3     0.00000    -0.00000    -1.63950

 writing wavefunctions
 BZINTS: Fermi energy:  0.944536;104.000000 electrons
         Band energy:***********;  BLOECHL correction:  0.000000