 vasp.5.4.1 24Jun15 (build Apr 13 2016 13:07:19) complex

 executed on           IFC91_ompi date 2019.09.14  03:28:34

 INCAR:
 POTCAR:    PAW_PBE W_sv_GW 23Mar2010
 POTCAR:    PAW_PBE Te_GW 22Mar2012

 POTCAR:    PAW_PBE W_sv_GW 23Mar2010
   VRHFIN =W: 5p6s5d

   TITEL  = PAW_PBE W_sv_GW 23Mar2010
   POMASS =  183.850; ZVAL   =   14.000    mass and valenz
   ENMAX  =  317.132; ENMIN  =  237.849 eV

 POTCAR:    PAW_PBE Te_GW 22Mar2012
   VRHFIN =Te: s2p4

   TITEL  = PAW_PBE Te_GW 22Mar2012
   POMASS =  127.600; ZVAL   =    6.000    mass and valenz
   ENMAX  =  174.982; ENMIN  =  131.236 eV

  PAW_PBE W_sv_GW 23Mar2010             :
  PAW_PBE Te_GW 22Mar2012               :

 POSCAR:  W Te
  positions in cartesian coordinates
 exchange correlation table for  LEXCH =        8
   RHO(1)=    0.500       N(1)  =     2000
   RHO(2)=  100.500       N(2)  =     4000

 ion  position               nearest neighbor table
   1  0.167  0.333  0.218-   7 2.74   7 2.74   7 2.74   6 2.74   6 2.74   6 2.74
   2  0.833  0.667  0.359-   8 2.74   8 2.74   8 2.74   9 2.74   9 2.74   9 2.74
   3  0.167  0.333  0.500-  10 2.74  11 2.74  10 2.74  11 2.74  10 2.74  11 2.74
   4  0.833  0.667  0.641-  13 2.74  13 2.74  13 2.74  12 2.74  12 2.74  12 2.74
   5  0.167  0.333  0.782-  14 2.74  14 2.74  14 2.74  15 2.74  15 2.74  15 2.74
   6  0.833  0.667  0.254-   1 2.74   1 2.74   1 2.74   7 3.62
   7  0.833  0.667  0.181-   1 2.74   1 2.74   1 2.74   6 3.62
   8  0.167  0.333  0.395-   2 2.74   2 2.74   2 2.74   9 3.62
   9  0.167  0.333  0.323-   2 2.74   2 2.74   2 2.74   8 3.62
  10  0.833  0.667  0.536-   3 2.74   3 2.74   3 2.74  11 3.62
  11  0.833  0.667  0.464-   3 2.74   3 2.74   3 2.74  10 3.62
  12  0.167  0.333  0.677-   4 2.74   4 2.74   4 2.74  13 3.62
  13  0.167  0.333  0.605-   4 2.74   4 2.74   4 2.74  12 3.62
  14  0.833  0.667  0.819-   5 2.74   5 2.74   5 2.74  15 3.62
  15  0.833  0.667  0.746-   5 2.74   5 2.74   5 2.74  14 3.62

  LATTYP: Found a hexagonal cell.
 ALAT       =     3.5500762221
 C/A-ratio  =    14.0842046402

  Lattice vectors:

 A1 = (   3.5500762221,   0.0000000000,   0.0000000000)
 A2 = (  -1.7750381110,   3.0744561937,   0.0000000000)
 A3 = (   0.0000000000,   0.0000000000,  50.0000000000)

Analysis of symmetry for initial positions (statically):
 Subroutine PRICEL returns:
 Original cell was already a primitive cell.

 Routine SETGRP: Setting up the symmetry group for a
 hexagonal supercell.

 Subroutine GETGRP returns: Found 12 space group operations
 (whereof  4 operations were pure point group operations)
 out of a pool of 24 trial point group operations.

The static configuration has the point symmetry C_2v.
 The point group associated with its full space group is D_3h.

Analysis of symmetry for dynamics (positions and initial velocities):
 Subroutine PRICEL returns:
 Original cell was already a primitive cell.

[...]

The dynamic configuration has the point symmetry C_2v.
 The point group associated with its full space group is D_3h.

 Subroutine INISYM returns: Found 12 space group operations
 (whereof  4 operations are pure point group operations),
 and found     1 'primitive' translations

 KPOINTS: KPOINTS created by Atomic Simulation Env

Automatic generation of k-mesh.
Space group operators:
 irot       det(A)        alpha          n_x          n_y          n_z        tau_x        tau_y        tau_z
    1     1.000000     0.000001     1.000000     0.000000     0.000000     0.000000     0.000000     0.000000
    2    -1.000000   180.000000     0.000000     0.000000     1.000000     0.000000     0.000000     0.000000
    3    -1.000000   179.999999     1.000000     0.000000     0.000000     0.000000     0.000000     0.000000
    4     1.000000   180.000000     0.000000     1.000000     0.000000     0.000000     0.000000     0.000000
    5    -1.000000    60.000000     0.000000     0.000000    -1.000000     0.000000     0.500000     0.000000
    6     1.000000   120.000000     0.000000     0.000000    -1.000000     0.500000     0.500000     0.000000
    7     1.000000   120.000000     0.000000     0.000000     1.000000     0.000000     0.500000     0.000000
    8    -1.000000    60.000000     0.000000     0.000000     1.000000     0.500000     0.500000     0.000000
    9     1.000000   180.000000     0.866025    -0.500000     0.000000     0.500000     0.500000     0.000000
   10    -1.000000   180.000000     0.500000    -0.866025     0.000000     0.000000     0.500000     0.000000
   11    -1.000000   180.000000    -0.500000    -0.866025     0.000000     0.500000     0.500000     0.000000
   12     1.000000   180.000000     0.866025     0.500000     0.000000     0.000000     0.500000     0.000000

 Subroutine IBZKPT returns following result:

 Found     37 irreducible k-points:

 Following reciprocal coordinates:
            Coordinates               Weight
  0.000000  0.000000  0.000000      1.000000
  0.055556  0.000000  0.000000      6.000000
  0.111111  0.000000  0.000000      6.000000
  0.166667  0.000000  0.000000      6.000000
  0.222222  0.000000  0.000000      6.000000
  0.277778  0.000000  0.000000      6.000000
  0.333333  0.000000  0.000000      6.000000
  0.388889  0.000000  0.000000      6.000000
  0.444444  0.000000  0.000000      6.000000
  0.500000  0.000000  0.000000      3.000000
  0.055556  0.055556  0.000000      6.000000
  0.111111  0.055556  0.000000     12.000000
  0.166667  0.055556  0.000000     12.000000
  0.222222  0.055556  0.000000     12.000000
  0.277778  0.055556  0.000000     12.000000
  0.333333  0.055556  0.000000     12.000000
  0.388889  0.055556  0.000000     12.000000
  0.444444  0.055556  0.000000     12.000000
  0.111111  0.111111  0.000000      6.000000
  0.166667  0.111111  0.000000     12.000000
  0.222222  0.111111  0.000000     12.000000
  0.277778  0.111111  0.000000     12.000000
  0.333333  0.111111  0.000000     12.000000
  0.388889  0.111111  0.000000     12.000000
  0.444444  0.111111  0.000000      6.000000
  0.166667  0.166667  0.000000      6.000000
  0.222222  0.166667  0.000000     12.000000
  0.277778  0.166667  0.000000     12.000000
  0.333333  0.166667  0.000000     12.000000
  0.388889  0.166667  0.000000     12.000000
  0.222222  0.222222  0.000000      6.000000
  0.277778  0.222222  0.000000     12.000000
  0.333333  0.222222  0.000000     12.000000
  0.388889  0.222222  0.000000      6.000000
  0.277778  0.277778  0.000000      6.000000
  0.333333  0.277778  0.000000     12.000000
  0.333333  0.333333  0.000000      2.000000

 Following cartesian coordinates:
            Coordinates               Weight
  0.000000  0.000000  0.000000      1.000000
  0.015649  0.009035  0.000000      6.000000
  0.031298  0.018070  0.000000      6.000000
  0.046947  0.027105  0.000000      6.000000
  0.062596  0.036140  0.000000      6.000000
  0.078246  0.045175  0.000000      6.000000
  0.093895  0.054210  0.000000      6.000000
  0.109544  0.063245  0.000000      6.000000
  0.125193  0.072280  0.000000      6.000000
  0.140842  0.081315  0.000000      3.000000
  0.015649  0.027105  0.000000      6.000000
  0.031298  0.036140  0.000000     12.000000
  0.046947  0.045175  0.000000     12.000000
  0.062596  0.054210  0.000000     12.000000
  0.078246  0.063245  0.000000     12.000000
  0.093895  0.072280  0.000000     12.000000
  0.109544  0.081315  0.000000     12.000000
  0.125193  0.090350  0.000000     12.000000
  0.031298  0.054210  0.000000      6.000000
  0.046947  0.063245  0.000000     12.000000
  0.062596  0.072280  0.000000     12.000000
  0.078246  0.081315  0.000000     12.000000
  0.093895  0.090350  0.000000     12.000000
  0.109544  0.099385  0.000000     12.000000
  0.125193  0.108420  0.000000      6.000000
  0.046947  0.081315  0.000000      6.000000
  0.062596  0.090350  0.000000     12.000000
  0.078246  0.099385  0.000000     12.000000
  0.093895  0.108420  0.000000     12.000000
  0.109544  0.117455  0.000000     12.000000
  0.062596  0.108420  0.000000      6.000000
  0.078246  0.117455  0.000000     12.000000
  0.093895  0.126490  0.000000     12.000000
  0.109544  0.135525  0.000000      6.000000
  0.078246  0.135525  0.000000      6.000000
  0.093895  0.144560  0.000000     12.000000
  0.093895  0.162630  0.000000      2.000000

 TETIRR: Found    169 inequivalent tetrahedra from     1944

 Subroutine IBZKPT_HF returns following result:

 Found    324 k-points in 1st BZ
 the following    324 k-points will be used (e.g. in the exchange kernel)
 Following reciprocal coordinates:   # in IRBZ
  0.000000  0.000000  0.000000    0.00308642   1 t-inv F
  0.055556  0.000000  0.000000    0.00308642   2 t-inv F
  0.111111  0.000000  0.000000    0.00308642   3 t-inv F
  0.166667  0.000000  0.000000    0.00308642   4 t-inv F
  0.222222  0.000000  0.000000    0.00308642   5 t-inv F
  0.277778  0.000000  0.000000    0.00308642   6 t-inv F
  0.333333  0.000000  0.000000    0.00308642   7 t-inv F
  0.388889  0.000000  0.000000    0.00308642   8 t-inv F
  0.444444  0.000000  0.000000    0.00308642   9 t-inv F
  0.500000  0.000000  0.000000    0.00308642  10 t-inv F
  0.055556  0.055556  0.000000    0.00308642  11 t-inv F
  0.111111  0.055556  0.000000    0.00308642  12 t-inv F
  0.166667  0.055556  0.000000    0.00308642  13 t-inv F
  0.222222  0.055556  0.000000    0.00308642  14 t-inv F
  0.277778  0.055556  0.000000    0.00308642  15 t-inv F
  0.333333  0.055556  0.000000    0.00308642  16 t-inv F
  0.388889  0.055556  0.000000    0.00308642  17 t-inv F
  0.444444  0.055556  0.000000    0.00308642  18 t-inv F
  0.111111  0.111111  0.000000    0.00308642  19 t-inv F
  0.166667  0.111111  0.000000    0.00308642  20 t-inv F
  0.222222  0.111111  0.000000    0.00308642  21 t-inv F
  0.277778  0.111111  0.000000    0.00308642  22 t-inv F
  0.333333  0.111111  0.000000    0.00308642  23 t-inv F
  0.388889  0.111111  0.000000    0.00308642  24 t-inv F
  0.444444  0.111111  0.000000    0.00308642  25 t-inv F
  0.166667  0.166667  0.000000    0.00308642  26 t-inv F
  0.222222  0.166667  0.000000    0.00308642  27 t-inv F
  0.277778  0.166667  0.000000    0.00308642  28 t-inv F
  0.333333  0.166667  0.000000    0.00308642  29 t-inv F
  0.388889  0.166667  0.000000    0.00308642  30 t-inv F
  0.222222  0.222222  0.000000    0.00308642  31 t-inv F
  0.277778  0.222222  0.000000    0.00308642  32 t-inv F
  0.333333  0.222222  0.000000    0.00308642  33 t-inv F
  0.388889  0.222222  0.000000    0.00308642  34 t-inv F
  0.277778  0.277778  0.000000    0.00308642  35 t-inv F
  0.333333  0.277778  0.000000    0.00308642  36 t-inv F
  0.333333  0.333333  0.000000    0.00308642  37 t-inv F
 -0.055556  0.055556  0.000000    0.00308642   2 t-inv F
  0.000000 -0.055556 -0.000000    0.00308642   2 t-inv F
 -0.111111  0.111111  0.000000    0.00308642   3 t-inv F
  0.000000 -0.111111 -0.000000    0.00308642   3 t-inv F
 -0.166667  0.166667  0.000000    0.00308642   4 t-inv F
  0.000000 -0.166667 -0.000000    0.00308642   4 t-inv F
 -0.222222  0.222222  0.000000    0.00308642   5 t-inv F
  0.000000 -0.222222 -0.000000    0.00308642   5 t-inv F
 -0.277778  0.277778  0.000000    0.00308642   6 t-inv F
[...]
   -.402E-06 0.233E-06 0.120E-09   -.273E-13 0.803E-13 0.000E+00   0.123E-15 -.382E-16 0.888E-15   -.383E-09 0.221E-09 0.696E-11

 POSITION                                       TOTAL-FORCE (eV/Angst)
     -0.00000      1.02482     10.88000         0.000000     -0.000000      0.022871
      1.77504      2.04964     17.94000         0.000000     -0.000000      0.000383
     -0.00000      1.02482     25.00000         0.000000      0.000000      0.000000
      1.77504      2.04964     32.06000         0.000000     -0.000000     -0.000383
     -0.00000      1.02482     39.12000        -0.000000     -0.000000     -0.022871
      1.77504      2.04964     12.69196        -0.000000     -0.000000     -0.082485
      1.77504      2.04964      9.06804        -0.000000     -0.000000      0.052473
     -0.00000      1.02482     19.75196        -0.000000      0.000000     -0.099066
     -0.00000      1.02482     16.12804        -0.000000      0.000000      0.099674
      1.77504      2.04964     26.81196         0.000000     -0.000000     -0.099284
      1.77504      2.04964     23.18804         0.000000     -0.000000      0.099284
     -0.00000      1.02482     33.87196        -0.000000      0.000000     -0.099674
     -0.00000      1.02482     30.24804        -0.000000      0.000000      0.099066
      1.77504      2.04964     40.93196        -0.000000     -0.000000     -0.052473
      1.77504      2.04964     37.30804        -0.000000     -0.000000      0.082485
    total drift:                               -0.000000      0.000000      0.000000

  FREE ENERGIE OF THE ION-ELECTRON SYSTEM (eV)
  free  energy   TOTEN  =      -112.20058890 eV

  energy  without entropy=     -112.20058890  energy(sigma->0) =     -112.20058890

 Linear response reoptimize wavefunctions
 Linear response G [H, r] |phi>, progress :
  Direction:   1

[...]

  free energy    TOTEN  =      -633.73250479 eV

[...]

 Linear response G [H, r] |phi>, progress :
  Direction:   2

[...]

 Linear response G [H, r] |phi>, progress :
  Direction:   3

[...]

  free energy    TOTEN  =      -708.49968316 eV

[...]

 Linear response to external field (no local field effect), progress :
  Direction:   1
  LATTYP: Found a hexagonal cell.
 ALAT       =     3.5500762221
 C/A-ratio  =    14.0842046402

[...]

The dynamic configuration has the point symmetry C_1h.

[...]

 Free energy of the ion-electron system (eV)
  -Hartree energ DENC   =         0.00000000
  -V(xc)+E(xc)   XCENC  =         0.00000000
  PAW double counting   =         0.00000000        0.00000000
  entropy T*S    EENTRO =         0.00000000
  eigenvalues    EBANDS =       -12.56482854
  free energy    TOTEN  =       -12.56482854 eV

  energy without entropy =      -12.56482854

[...]

 change of polarisation eV/A/(eV/A) component  1 :    39.256    -1.580     0.000
 dielectric tensor                  component  1 :    14.017    -0.524     0.000

[...]

The dynamic configuration has the point symmetry C_2v.

[...]

 Linear response to external field (no local field effect), progress :
  Direction:   3
  LATTYP: Found a hexagonal cell.
 ALAT       =     3.5500762221
 C/A-ratio  =    14.0842046402

[...]

The dynamic configuration has the point symmetry C_1h.
 The point group associated with its full space group is C_3v.

[...]

 HEAD OF MICROSCOPIC STATIC DIELECTRIC TENSOR (INDEPENDENT PARTICLE, excluding Hartree and local field effects)
          14.010536    -0.000000     0.000000
          -0.000000    14.010536     0.000000
           0.000000     0.000000     8.882728

 Linear response to external field, progress :
  Direction:   1
  LATTYP: Found a hexagonal cell.
 ALAT       =     3.5500762221
 C/A-ratio  =    14.0842046402

[...]

The dynamic configuration has the point symmetry C_1h.

[...]

  Parameters of vdW forcefield:
            C6ts              R0ts           ALPHAts        RELVOL
            (au)              (au)            (au)
   W         919.835          4.138         73.992          1.042
   W         923.370          4.140         74.134          1.044
   W         923.378          4.140         74.134          1.044
   W         923.370          4.140         74.134          1.044
   W         919.835          4.138         73.992          1.042
   Te        408.976          4.237         38.262          1.016
   Te        401.536          4.224         37.912          1.007
   Te        408.999          4.237         38.263          1.016
   Te        408.972          4.237         38.262          1.016
   Te        408.998          4.237         38.263          1.016
   Te        408.998          4.237         38.263          1.016
   Te        408.972          4.237         38.262          1.016
   Te        408.999          4.237         38.263          1.016
   Te        401.536          4.224         37.912          1.007
   Te        408.976          4.237         38.262          1.016
  Edisp (eV):   -4.74060

[...]

 PIEZOELECTRIC TENSOR FIELD DIRECTION 1  (e Angst)
    -0.02002 -0.80968  0.00000           ( -0.00003  0.13129  0.00000)
    -0.80973  0.01555  0.00000           (  0.13129  0.00015  0.00000)
     0.00000  0.00000 -0.00143           (  0.00000  0.00000  0.00006)

 PIEZOELECTRIC TENSOR FIELD DIRECTION 1  (C/m^2)
    -0.00059 -0.02377  0.00000
    -0.02377  0.00046  0.00000
     0.00000  0.00000 -0.00004

      POSITION         DIRECTION 1           BORN EFFECTIVE CHARGE    (rigid.aug.   ionic)
     -0.00000      1.02482     10.88000    -2.51544 -0.00108  0.00001 (  1.94634 14.00000)
      1.77504      2.04964     17.94000    -2.52952  0.00110  0.00000 (  1.94640 14.00000)
     -0.00000      1.02482     25.00000    -2.53848 -0.00111  0.00000 (  1.94640 14.00000)
      1.77504      2.04964     32.06000    -2.52952  0.00110 -0.00000 (  1.94640 14.00000)
     -0.00000      1.02482     39.12000    -2.51544 -0.00108 -0.00001 (  1.94634 14.00000)
      1.77504      2.04964     12.69196     1.28192 -0.00027 -0.00045 (  1.18311  6.00000)
      1.77504      2.04964      9.06804     1.28014 -0.00029  0.00028 (  1.18266  6.00000)
     -0.00000      1.02482     19.75196     1.28233  0.00027 -0.00045 (  1.18311  6.00000)
     -0.00000      1.02482     16.12804     1.28375  0.00027  0.00044 (  1.18307  6.00000)
      1.77504      2.04964     26.81196     1.28239 -0.00026 -0.00044 (  1.18311  6.00000)
      1.77504      2.04964     23.18804     1.28239 -0.00026  0.00044 (  1.18311  6.00000)
     -0.00000      1.02482     33.87196     1.28375  0.00027 -0.00044 (  1.18307  6.00000)
     -0.00000      1.02482     30.24804     1.28233  0.00027  0.00045 (  1.18311  6.00000)
      1.77504      2.04964     40.93196     1.28014 -0.00029 -0.00028 (  1.18266  6.00000)
      1.77504      2.04964     37.30804     1.28192 -0.00027  0.00045 (  1.18311  6.00000)
    total drift (improves with k-points):   0.19265 -0.00159  0.00000

[...]

The dynamic configuration has the point symmetry C_2v.

[...]

 Linear response to external field, progress :
  Direction:   3
  LATTYP: Found a hexagonal cell.
 ALAT       =     3.5500762221
 C/A-ratio  =    14.0842046402

[...]

The dynamic configuration has the point symmetry C_1h.
 The point group associated with its full space group is C_3v.

[...]

----------------------------------------- Iteration    3(  25)  ---------------------------------------

 Broyden mixing:
  rms(total) = 0.93792E-06    rms(broyden)= 0.93765E-06
  rms(prec ) = 0.94217E-06
  weight for this iteration     100.00

 eigenvalues of (default mixing * dielectric matrix)
  average eigenvalue GAMMA=   2.0411
  9.4899  5.9401  3.8667  3.5770  2.8528  2.8528  2.0842  2.0458  2.0458  1.5762
  1.0366  1.0366  1.1326  0.9653  0.9240  0.8014  0.7846  0.7846  0.6793  0.6793
  0.6016  0.6337  0.5551

 Free energy of the ion-electron system (eV)
  -Hartree energ DENC   =        -1.87876786
  -V(xc)+E(xc)   XCENC  =         0.03797573
  PAW double counting   =         0.08936828       -0.08828830
  entropy T*S    EENTRO =         0.00000000
  eigenvalues    EBANDS =        -0.80438554
  free energy    TOTEN  =        -2.64409770 eV

  energy without entropy =       -2.64409770

------------------------ aborting loop because EDIFF is reached ----------------------------------------

 change of polarisation eV/A/(eV/A) component  3 :     0.000     0.000     5.166
 dielectric tensor                  component  3 :     0.000     0.000     2.713

[...]

  Hirshfeld charges:
            ion         q(e)
      1     W           0.216
      2     W           0.215
      3     W           0.215
      4     W           0.215
      5     W           0.216
      6     Te         -0.108
      7     Te         -0.108
      8     Te         -0.107
      9     Te         -0.107
     10     Te         -0.107
     11     Te         -0.107
     12     Te         -0.107
     13     Te         -0.107
     14     Te         -0.108
     15     Te         -0.108

  Tkatchenko/Scheffler method for vdW energy calculation

  Parameters of vdW forcefield:
            C6ts              R0ts           ALPHAts        RELVOL
            (au)              (au)            (au)
   W         919.835          4.138         73.992          1.042
   W         923.370          4.140         74.134          1.044
   W         923.378          4.140         74.134          1.044
   W         923.370          4.140         74.134          1.044
   W         919.835          4.138         73.992          1.042
   Te        408.976          4.237         38.262          1.016
   Te        401.537          4.224         37.912          1.007
   Te        408.999          4.237         38.263          1.016
   Te        408.972          4.237         38.262          1.016
   Te        408.998          4.237         38.263          1.016
   Te        408.998          4.237         38.263          1.016
   Te        408.972          4.237         38.262          1.016
   Te        408.999          4.237         38.263          1.016
   Te        401.536          4.224         37.912          1.007
   Te        408.976          4.237         38.262          1.016
  Edisp (eV):   -4.74060

 PIEZOELECTRIC TENSOR FIELD DIRECTION 3  (e Angst)
    -0.00064 -0.00000 -0.00000           (  0.00000  0.00000  0.00000)
     0.00000 -0.00064  0.00000           (  0.00000  0.00000  0.00000)
     0.00000 -0.00000 -0.00073           (  0.00000  0.00000  0.00000)

 PIEZOELECTRIC TENSOR FIELD DIRECTION 3  (C/m^2)
    -0.00002 -0.00000 -0.00000
     0.00000 -0.00002  0.00000
     0.00000 -0.00000 -0.00002

      POSITION         DIRECTION 3           BORN EFFECTIVE CHARGE    (rigid.aug.   ionic)
     -0.00000      1.02482     10.88000    -0.00000  0.00000-60.50570 (  1.94634 14.00000)
      1.77504      2.04964     17.94000    -0.00000  0.00000-16.41445 (  1.94640 14.00000)
     -0.00000      1.02482     25.00000     0.00000 -0.00000 -2.41327 (  1.94640 14.00000)
      1.77504      2.04964     32.06000     0.00000 -0.00000-16.41438 (  1.94640 14.00000)
     -0.00000      1.02482     39.12000    -0.00000  0.00000-60.50587 (  1.94634 14.00000)
      1.77504      2.04964     12.69196     0.00000 -0.00000 -4.92023 (  1.18311  6.00000)
      1.77504      2.04964      9.06804    -0.00000 -0.00000 13.96540 (  1.18266  6.00000)
     -0.00000      1.02482     19.75196    -0.00000 -0.00000 -0.38154 (  1.18311  6.00000)
     -0.00000      1.02482     16.12804    -0.00000  0.00000  0.17060 (  1.18307  6.00000)
      1.77504      2.04964     26.81196    -0.00000 -0.00000  1.30873 (  1.18311  6.00000)
      1.77504      2.04964     23.18804    -0.00000  0.00000  1.30873 (  1.18311  6.00000)
     -0.00000      1.02482     33.87196     0.00000 -0.00000  0.17060 (  1.18307  6.00000)
     -0.00000      1.02482     30.24804    -0.00000  0.00000 -0.38154 (  1.18311  6.00000)
      1.77504      2.04964     40.93196     0.00000  0.00000 13.96541 (  1.18266  6.00000)
      1.77504      2.04964     37.30804    -0.00000 -0.00000 -4.92022 (  1.18311  6.00000)
    total drift (improves with k-points):  -0.00000 -0.00000*********

[...]

 MACROSCOPIC STATIC DIELECTRIC TENSOR (including local field effects in DFT)
          13.518094     0.000000     0.000000
           0.000000    13.518094     0.000000
           0.000000     0.000000     2.712858

  LATTYP: Found a hexagonal cell.
 ALAT       =     3.5500762221
 C/A-ratio  =    14.0842046402

  Lattice vectors:

 A1 = (   3.5500762221,   0.0000000000,   0.0000000000)
 A2 = (  -1.7750381110,   3.0744561937,   0.0000000000)
 A3 = (   0.0000000000,   0.0000000000,  50.0000000000)

Analysis of symmetry for initial positions (statically):
 Subroutine PRICEL returns:
 Original cell was already a primitive cell.

[...]

The static configuration has the point symmetry C_2v.
 The point group associated with its full space group is D_3h.

Analysis of symmetry for dynamics (positions and initial velocities):
 Subroutine PRICEL returns:
 Original cell was already a primitive cell.

 Routine SETGRP: Setting up the symmetry group for a
 hexagonal supercell.

 Subroutine GETGRP returns: Found 12 space group operations
 (whereof  4 operations were pure point group operations)
 out of a pool of 24 trial point group operations.

The dynamic configuration has the point symmetry C_2v.
 The point group associated with its full space group is D_3h.

 Subroutine INISYM returns: Found 12 space group operations
 (whereof  4 operations are pure point group operations),
 and found     1 'primitive' translations

 MACROSCOPIC STATIC DIELECTRIC TENSOR (including local field effects in DFT)
          13.518094     0.000000     0.000000
           0.000000    13.518094     0.000000
           0.000000     0.000000     2.712858

 PIEZOELECTRIC TENSOR  for field in x, y, z        (e  Angst)
          XX          YY          ZZ          XY          YZ          ZX
  x    -0.02002     0.01555    -0.00143    -0.80973     0.00000     0.00000
  y    -0.82824     0.83653     0.00599     0.00000     0.00000     0.00000
  z    -0.00064    -0.00064    -0.00073     0.00000    -0.00000    -0.00000

 PIEZOELECTRIC TENSOR  for field in x, y, z        (C/m^2)
          XX          YY          ZZ          XY          YZ          ZX
  x     0.00000     0.00000     0.00000    -0.02410     0.00000     0.00000
  y    -0.02410     0.02410     0.00000    -0.00000     0.00000     0.00000
  z     0.00000     0.00000     0.00000     0.00000    -0.00000    -0.00000

 BORN EFFECTIVE CHARGES (in e, cummulative output)
 ion    1
    1    -2.51544    -0.00108     0.00001
    2     0.00000    -2.51620    -0.00005
    3    -0.00000     0.00000   -60.50570
 ion    2
    1    -2.52952     0.00110     0.00000
    2    -0.00000    -2.52878     0.00000
    3    -0.00000     0.00000   -16.41445
 ion    3
    1    -2.53848    -0.00111     0.00000
    2     0.00000    -2.53937     0.00000
    3     0.00000    -0.00000    -2.41327
 ion    4
    1    -2.52952     0.00110    -0.00000
    2    -0.00000    -2.52878    -0.00000
    3     0.00000    -0.00000   -16.41438
 ion    5
    1    -2.51544    -0.00108    -0.00001
    2     0.00000    -2.51620     0.00005
    3    -0.00000     0.00000   -60.50587
 ion    6
    1     1.28192    -0.00027    -0.00045
    2    -0.00000     1.28231     0.00123
    3     0.00000    -0.00000    -4.92023
 ion    7
    1     1.28014    -0.00029     0.00028
    2     0.00000     1.28044    -0.00078
    3    -0.00000    -0.00000    13.96540
 ion    8
    1     1.28233     0.00027    -0.00045
    2     0.00000     1.28194     0.00118
    3    -0.00000    -0.00000    -0.38154
 ion    9
    1     1.28375     0.00027     0.00044
    2    -0.00000     1.28334    -0.00118
    3    -0.00000     0.00000     0.17060
 ion   10
    1     1.28239    -0.00026    -0.00044
    2     0.00000     1.28280     0.00119
    3    -0.00000    -0.00000     1.30873
 ion   11
    1     1.28239    -0.00026     0.00044
    2     0.00000     1.28280    -0.00119
    3    -0.00000     0.00000     1.30873
 ion   12
    1     1.28375     0.00027    -0.00044
    2    -0.00000     1.28334     0.00118
    3     0.00000    -0.00000     0.17060
 ion   13
    1     1.28233     0.00027     0.00045
    2     0.00000     1.28194    -0.00118
    3    -0.00000     0.00000    -0.38154
 ion   14
    1     1.28014    -0.00029    -0.00028
    2     0.00000     1.28044     0.00078
    3     0.00000     0.00000    13.96541
 ion   15
    1     1.28192    -0.00027     0.00045
    2    -0.00000     1.28231    -0.00123
    3    -0.00000    -0.00000    -4.92022

 writing wavefunctions
 BZINTS: Fermi energy:  4.319050;130.000000 electrons
         Band energy:***********;  BLOECHL correction:  0.000000