 vasp.5.4.1 24Jun15 (build Apr 13 2016 13:07:19) complex

 executed on           IFC91_ompi date 2019.09.13  22:25:05

 INCAR:
 POTCAR:    PAW_PBE W_sv_GW 23Mar2010
 POTCAR:    PAW_PBE S_GW 19Mar2012

 POTCAR:    PAW_PBE W_sv_GW 23Mar2010
   VRHFIN =W: 5p6s5d

   TITEL  = PAW_PBE W_sv_GW 23Mar2010
   POMASS =  183.850; ZVAL   =   14.000    mass and valenz
   ENMAX  =  317.132; ENMIN  =  237.849 eV

 POTCAR:    PAW_PBE S_GW 19Mar2012
   VRHFIN =S : s2p4

   TITEL  = PAW_PBE S_GW 19Mar2012
   POMASS =   32.066; ZVAL   =    6.000    mass and valenz
   ENMAX  =  258.689; ENMIN  =  194.016 eV

  PAW_PBE W_sv_GW 23Mar2010             :
  PAW_PBE S_GW 19Mar2012                :

 POSCAR:  W  S
  positions in cartesian coordinates
 exchange correlation table for  LEXCH =        8
   RHO(1)=    0.500       N(1)  =     2000
   RHO(2)=  100.500       N(2)  =     4000

 ion  position               nearest neighbor table
   1  0.167  0.333  0.438-   4 2.42   4 2.42   4 2.42   3 2.42   3 2.42   3 2.42
   2  0.833  0.667  0.562-   5 2.42   5 2.42   5 2.42   6 2.42   6 2.42   6 2.42
   3  0.833  0.667  0.470-   1 2.42   1 2.42   1 2.42
   4  0.833  0.667  0.407-   1 2.42   1 2.42   1 2.42
   5  0.167  0.333  0.593-   2 2.42   2 2.42   2 2.42
   6  0.167  0.333  0.530-   2 2.42   2 2.42   2 2.42

  LATTYP: Found a hexagonal cell.
 ALAT       =     3.1859459497
 C/A-ratio  =    15.6939260082

  Lattice vectors:

 A1 = (   3.1859459497,   0.0000000000,   0.0000000000)
 A2 = (  -1.5929729748,   2.7591101275,   0.0000000000)
 A3 = (   0.0000000000,   0.0000000000,  50.0000000000)

Analysis of symmetry for initial positions (statically):
 Subroutine PRICEL returns:
 Original cell was already a primitive cell.

 Routine SETGRP: Setting up the symmetry group for a
 hexagonal supercell.

 Subroutine GETGRP returns: Found 12 space group operations
 (whereof  4 operations were pure point group operations)
 out of a pool of 24 trial point group operations.

The static configuration has the point symmetry C_2h.
 The point group associated with its full space group is D_3d.

Analysis of symmetry for dynamics (positions and initial velocities):
 Subroutine PRICEL returns:
 Original cell was already a primitive cell.

[...]

The dynamic configuration has the point symmetry C_2h.
 The point group associated with its full space group is D_3d.

 Subroutine INISYM returns: Found 12 space group operations
 (whereof  4 operations are pure point group operations),
 and found     1 'primitive' translations

 KPOINTS: KPOINTS created by Atomic Simulation Env

Automatic generation of k-mesh.
Space group operators:
 irot       det(A)        alpha          n_x          n_y          n_z        tau_x        tau_y        tau_z
    1     1.000000     0.000000     1.000000     0.000000     0.000000     0.000000     0.000000     0.000000
    2    -1.000000     0.000000     1.000000     0.000000     0.000000     0.000000     0.000000     0.000000
    3     1.000000   180.000000     1.000000     0.000000     0.000000     0.000000     0.000000     0.000000
    4    -1.000000   180.000000     1.000000     0.000000     0.000000     0.000000     0.000000     0.000000
    5     1.000000   120.000000     0.000000     0.000000    -1.000000     0.500000     0.500000     0.000000
    6    -1.000000   120.000000     0.000000     0.000000    -1.000000     0.500000     0.500000     0.000000
    7     1.000000   120.000000     0.000000     0.000000     1.000000     0.000000     0.500000     0.000000
    8    -1.000000   120.000000     0.000000     0.000000     1.000000     0.000000     0.500000     0.000000
    9     1.000000   180.000000     0.500000    -0.866025     0.000000     0.000000     0.500000     0.000000
   10    -1.000000   180.000000     0.500000    -0.866025     0.000000     0.000000     0.500000     0.000000
   11     1.000000   180.000000    -0.500000    -0.866025     0.000000     0.500000     0.500000     0.000000
   12    -1.000000   180.000000    -0.500000    -0.866025     0.000000     0.500000     0.500000     0.000000

 Subroutine IBZKPT returns following result:

 Found     37 irreducible k-points:

 Following reciprocal coordinates:
            Coordinates               Weight
  0.000000  0.000000  0.000000      1.000000
  0.055556  0.000000  0.000000      6.000000
  0.111111  0.000000  0.000000      6.000000
  0.166667  0.000000  0.000000      6.000000
  0.222222  0.000000  0.000000      6.000000
  0.277778  0.000000  0.000000      6.000000
  0.333333  0.000000  0.000000      6.000000
  0.388889  0.000000  0.000000      6.000000
  0.444444  0.000000  0.000000      6.000000
  0.500000  0.000000  0.000000      3.000000
  0.055556  0.055556  0.000000      6.000000
  0.111111  0.055556  0.000000     12.000000
  0.166667  0.055556  0.000000     12.000000
  0.222222  0.055556  0.000000     12.000000
  0.277778  0.055556  0.000000     12.000000
  0.333333  0.055556  0.000000     12.000000
  0.388889  0.055556  0.000000     12.000000
  0.444444  0.055556  0.000000     12.000000
  0.111111  0.111111  0.000000      6.000000
  0.166667  0.111111  0.000000     12.000000
  0.222222  0.111111  0.000000     12.000000
  0.277778  0.111111  0.000000     12.000000
  0.333333  0.111111  0.000000     12.000000
  0.388889  0.111111  0.000000     12.000000
  0.444444  0.111111  0.000000      6.000000
  0.166667  0.166667  0.000000      6.000000
  0.222222  0.166667  0.000000     12.000000
  0.277778  0.166667  0.000000     12.000000
  0.333333  0.166667  0.000000     12.000000
  0.388889  0.166667  0.000000     12.000000
  0.222222  0.222222  0.000000      6.000000
  0.277778  0.222222  0.000000     12.000000
  0.333333  0.222222  0.000000     12.000000
  0.388889  0.222222  0.000000      6.000000
  0.277778  0.277778  0.000000      6.000000
  0.333333  0.277778  0.000000     12.000000
  0.333333  0.333333  0.000000      2.000000

 Following cartesian coordinates:
            Coordinates               Weight
  0.000000  0.000000  0.000000      1.000000
  0.017438  0.010068  0.000000      6.000000
  0.034875  0.020135  0.000000      6.000000
  0.052313  0.030203  0.000000      6.000000
  0.069751  0.040271  0.000000      6.000000
  0.087188  0.050338  0.000000      6.000000
  0.104626  0.060406  0.000000      6.000000
  0.122064  0.070474  0.000000      6.000000
  0.139502  0.080541  0.000000      6.000000
  0.156939  0.090609  0.000000      3.000000
  0.017438  0.030203  0.000000      6.000000
  0.034875  0.040271  0.000000     12.000000
  0.052313  0.050338  0.000000     12.000000
  0.069751  0.060406  0.000000     12.000000
  0.087188  0.070474  0.000000     12.000000
  0.104626  0.080541  0.000000     12.000000
  0.122064  0.090609  0.000000     12.000000
  0.139502  0.100677  0.000000     12.000000
  0.034875  0.060406  0.000000      6.000000
  0.052313  0.070474  0.000000     12.000000
  0.069751  0.080541  0.000000     12.000000
  0.087188  0.090609  0.000000     12.000000
  0.104626  0.100677  0.000000     12.000000
  0.122064  0.110744  0.000000     12.000000
  0.139502  0.120812  0.000000      6.000000
  0.052313  0.090609  0.000000      6.000000
  0.069751  0.100677  0.000000     12.000000
  0.087188  0.110744  0.000000     12.000000
  0.104626  0.120812  0.000000     12.000000
  0.122064  0.130880  0.000000     12.000000
  0.069751  0.120812  0.000000      6.000000
  0.087188  0.130880  0.000000     12.000000
  0.104626  0.140947  0.000000     12.000000
  0.122064  0.151015  0.000000      6.000000
  0.087188  0.151015  0.000000      6.000000
  0.104626  0.161083  0.000000     12.000000
  0.104626  0.181218  0.000000      2.000000

 TETIRR: Found    169 inequivalent tetrahedra from     1944

 Subroutine IBZKPT_HF returns following result:

 Found    324 k-points in 1st BZ
 the following    324 k-points will be used (e.g. in the exchange kernel)
 Following reciprocal coordinates:   # in IRBZ
  0.000000  0.000000  0.000000    0.00308642   1 t-inv F
  0.055556  0.000000  0.000000    0.00308642   2 t-inv F
  0.111111  0.000000  0.000000    0.00308642   3 t-inv F
  0.166667  0.000000  0.000000    0.00308642   4 t-inv F
  0.222222  0.000000  0.000000    0.00308642   5 t-inv F
  0.277778  0.000000  0.000000    0.00308642   6 t-inv F
  0.333333  0.000000  0.000000    0.00308642   7 t-inv F
  0.388889  0.000000  0.000000    0.00308642   8 t-inv F
  0.444444  0.000000  0.000000    0.00308642   9 t-inv F
  0.500000  0.000000  0.000000    0.00308642  10 t-inv F
  0.055556  0.055556  0.000000    0.00308642  11 t-inv F
  0.111111  0.055556  0.000000    0.00308642  12 t-inv F
  0.166667  0.055556  0.000000    0.00308642  13 t-inv F
  0.222222  0.055556  0.000000    0.00308642  14 t-inv F
  0.277778  0.055556  0.000000    0.00308642  15 t-inv F
  0.333333  0.055556  0.000000    0.00308642  16 t-inv F
  0.388889  0.055556  0.000000    0.00308642  17 t-inv F
  0.444444  0.055556  0.000000    0.00308642  18 t-inv F
  0.111111  0.111111  0.000000    0.00308642  19 t-inv F
  0.166667  0.111111  0.000000    0.00308642  20 t-inv F
  0.222222  0.111111  0.000000    0.00308642  21 t-inv F
  0.277778  0.111111  0.000000    0.00308642  22 t-inv F
  0.333333  0.111111  0.000000    0.00308642  23 t-inv F
  0.388889  0.111111  0.000000    0.00308642  24 t-inv F
  0.444444  0.111111  0.000000    0.00308642  25 t-inv F
  0.166667  0.166667  0.000000    0.00308642  26 t-inv F
  0.222222  0.166667  0.000000    0.00308642  27 t-inv F
  0.277778  0.166667  0.000000    0.00308642  28 t-inv F
  0.333333  0.166667  0.000000    0.00308642  29 t-inv F
  0.388889  0.166667  0.000000    0.00308642  30 t-inv F
  0.222222  0.222222  0.000000    0.00308642  31 t-inv F
  0.277778  0.222222  0.000000    0.00308642  32 t-inv F
  0.333333  0.222222  0.000000    0.00308642  33 t-inv F
  0.388889  0.222222  0.000000    0.00308642  34 t-inv F
  0.277778  0.277778  0.000000    0.00308642  35 t-inv F
  0.333333  0.277778  0.000000    0.00308642  36 t-inv F
  0.333333  0.333333  0.000000    0.00308642  37 t-inv F
 -0.055556 -0.000000 -0.000000    0.00308642   2 t-inv F
  0.055556 -0.055556 -0.000000    0.00308642   2 t-inv F
 -0.055556  0.055556  0.000000    0.00308642   2 t-inv F
  0.000000 -0.055556  0.000000    0.00308642   2 t-inv F
 -0.000000  0.055556 -0.000000    0.00308642   2 t-inv F
 -0.111111 -0.000000 -0.000000    0.00308642   3 t-inv F
  0.111111 -0.111111 -0.000000    0.00308642   3 t-inv F
 -0.111111  0.111111  0.000000    0.00308642   3 t-inv F
  0.000000 -0.111111  0.000000    0.00308642   3 t-inv F
 -0.000000  0.111111 -0.000000    0.00308642   3 t-inv F
 -0.166667 -0.000000 -0.000000    0.00308642   4 t-inv F
  0.166667 -0.166667 -0.000000    0.00308642   4 t-inv F
 -0.166667  0.166667  0.000000    0.00308642   4 t-inv F
  0.000000 -0.166667  0.000000    0.00308642   4 t-inv F
 -0.000000  0.166667 -0.000000    0.00308642   4 t-inv F
 -0.222222 -0.000000 -0.000000    0.00308642   5 t-inv F
  0.222222 -0.222222 -0.000000    0.00308642   5 t-inv F
 -0.222222  0.222222  0.000000    0.00308642   5 t-inv F
  0.000000 -0.222222  0.000000    0.00308642   5 t-inv F
 -0.000000  0.222222 -0.000000    0.00308642   5 t-inv F
 -0.277778 -0.000000 -0.000000    0.00308642   6 t-inv F
[...]
     27      -0.7705      0.00000
     28      -0.7705      0.00000
     29       0.4031      0.00000
     30       1.0141      0.00000
     31       1.3705      0.00000
     32       1.3705      0.00000
     33       2.8322      0.00000
     34       2.8322      0.00000
     35       4.0697      0.00000
     36       4.1820      0.00000
     37       4.1820      0.00000
     38       4.9744      0.00000
     39       6.8259      0.00000
     40       6.8259      0.00000
     41       8.0878      0.00000
     42       8.0879      0.00000
     43       8.5615      0.00000
     44       8.7114      0.00000
     45       8.7206      0.00000
     46       8.8469      0.00000
     47       9.0540      0.00000
     48       9.0540      0.00000
     49       9.4577      0.00000
     50       9.6145      0.00000
     51       9.6145      0.00000
     52       9.6387      0.00000
     53       9.7170      0.00000
     54       9.7170      0.00000
     55       9.7307      0.00000
     56       9.7307      0.00000

 soft charge-density along one line, spin component           1
         0         1         2         3         4         5         6         7         8         9
 total charge-density along one line

------------------------ aborting loop because EDIFF is reached ----------------------------------------

  Hirshfeld charges:
            ion         q(e)
      1     W           0.351
      2     W           0.351
      3     S          -0.175
      4     S          -0.176
      5     S          -0.176
      6     S          -0.175

  Atomic reference data used in the T-S method for vdW correction:
            C6at              R0at           ALPHAat      REFSTATE
            (au)              (au)            (au)
   W         847.930          4.082         71.041         0
   S         134.000          3.855         19.600         0

  Tkatchenko/Scheffler method for vdW energy calculation

  Parameters of vdW forcefield:
            C6ts              R0ts           ALPHAts        RELVOL
            (au)              (au)            (au)
   W         873.722          4.102         72.113          1.015
   W         873.722          4.102         72.113          1.015
   S         135.462          3.862         19.707          1.005
   S         132.616          3.848         19.498          0.995
   S         132.616          3.848         19.498          0.995
   S         135.462          3.862         19.707          1.005

  IVDW =  20
  VDW_RADIUS =    50.000 A
  VDW_IDAMPF =  0
  VDW_S6 =     1.000
  VDW_SR =     0.940
  VDW_D =    20.000
  LVDW_EWALD = T
  Edisp (eV):   -1.45201

  FORCE on cell =-STRESS in cart. coord.  units (eV):
  Direction    XX          YY          ZZ          XY          YZ          ZX
  Alpha Z    46.77893    46.77893    46.77893
  Ewald   68888.32996 68888.32996-71695.57139    -0.00000    -0.00000     0.00000
  Hartree 69700.12859 69700.12859-69241.23306    -0.00000    -0.00000    -0.00000
  E(xc)    -252.58102  -252.58102  -252.94188     0.00000    -0.00000     0.00000
  Local  ************************139973.76829    -0.00001    -0.00000     0.00000
  n-local   131.13090   133.06650   135.73368     0.33480     0.00823    -0.06504
  augment  -146.08749  -146.08748  -147.35998     0.00001     0.00000    -0.00000
  Kinetic  1164.54909  1170.67786  1178.07169   -30.90637     0.03418     0.43441
  Fock        0.00000     0.00000     0.00000     0.00000     0.00000     0.00000
  vdW        -1.50765    -1.50765    -1.24640     0.00000    -0.00000    -0.00000
  Total      -4.65043    -4.65043    -4.00012     0.00000    -0.00000     0.00000
  in kB     -16.95222   -16.95222   -14.58164     0.00000    -0.00000     0.00000

 VOLUME and BASIS-vectors are now :
  energy-cutoff  :      317.13
  volume of cell :      439.52
      direct lattice vectors                 reciprocal lattice vectors
     3.185945950  0.000000000  0.000000000     0.313878520  0.181217848  0.000000000
    -1.592972975  2.759110127  0.000000000     0.000000000  0.362435696  0.000000000
     0.000000000  0.000000000 50.000000000     0.000000000  0.000000000  0.020000000

  length of vectors
     3.185945950  3.185945950 50.000000000     0.362435696  0.362435696  0.020000000

 FORCES acting on ions
    electron-ion (+dipol)            ewald-force                    non-local-force                 convergence-correction
   -.400E-06 0.307E-06 0.282E+04   0.120E-10 -.698E-11 -.283E+04   -.104E-16 0.173E-17 0.186E-01   0.246E-10 -.141E-10 0.250E-05
   0.400E-06 -.307E-06 -.282E+04   -.120E-10 0.694E-11 0.283E+04   0.000E+00 -.173E-17 -.186E-01   -.246E-10 0.141E-10 -.250E-05
   -.308E-07 0.132E-06 0.247E+03   -.608E-11 0.349E-11 -.239E+03   -.139E-16 0.139E-16 -.811E+01   -.397E-11 0.229E-11 -.807E-06
   -.340E-07 0.889E-07 0.217E+04   -.605E-11 0.349E-11 -.218E+04   -.121E-16 0.347E-17 0.805E+01   0.330E-12 -.199E-12 -.182E-05
   0.340E-07 -.889E-07 -.217E+04   0.605E-11 -.352E-11 0.218E+04   0.173E-16 0.104E-16 -.805E+01   -.330E-12 0.198E-12 0.182E-05
   0.308E-07 -.132E-06 -.247E+03   0.609E-11 -.353E-11 0.239E+03   0.000E+00 -.139E-16 0.811E+01   0.397E-11 -.229E-11 0.807E-06
   -.186E-10 0.207E-10 0.103E-09   0.650E-13 -.104E-12 -.796E-12   -.191E-16 0.139E-16 0.178E-14   0.146E-14 0.286E-14 -.534E-11

 POSITION                                       TOTAL-FORCE (eV/Angst)
     -0.00000      0.91970     21.92500        -0.000000      0.000000      0.064938
      1.59297      1.83941     28.07500         0.000000     -0.000000     -0.064938
      1.59297      1.83941     23.49780         0.000000     -0.000000     -0.127538
      1.59297      1.83941     20.35220        -0.000000      0.000000      0.055251
     -0.00000      0.91970     29.64780         0.000000     -0.000000     -0.055251
     -0.00000      0.91970     26.50220         0.000000      0.000000      0.127538
    total drift:                               -0.000000      0.000000      0.000000

  FREE ENERGIE OF THE ION-ELECTRON SYSTEM (eV)
  free  energy   TOTEN  =       -52.79136305 eV

  energy  without entropy=      -52.79136305  energy(sigma->0) =      -52.79136305

 Linear response reoptimize wavefunctions
 Linear response G [H, r] |phi>, progress :
  Direction:   1

[...]

  free energy    TOTEN  =      -227.94568390 eV

[...]

 Linear response G [H, r] |phi>, progress :
  Direction:   2

[...]

 Linear response G [H, r] |phi>, progress :
  Direction:   3

[...]

  free energy    TOTEN  =      -226.75578766 eV

[...]

 Linear response to external field (no local field effect), progress :
  Direction:   1
  LATTYP: Found a hexagonal cell.
 ALAT       =     3.1859459497
 C/A-ratio  =    15.6939260082

[...]

The dynamic configuration has the point symmetry C_2 .

[...]

 Free energy of the ion-electron system (eV)
  -Hartree energ DENC   =         0.00000000
  -V(xc)+E(xc)   XCENC  =         0.00000000
  PAW double counting   =         0.00000000        0.00000000
  entropy T*S    EENTRO =         0.00000000
  eigenvalues    EBANDS =        -3.61325169
  free energy    TOTEN  =        -3.61325169 eV

  energy without entropy =       -3.61325169

[...]

 change of polarisation eV/A/(eV/A) component  1 :     8.396    -1.018    -0.051
 dielectric tensor                  component  1 :     4.457    -0.419    -0.021

[...]

The dynamic configuration has the point symmetry C_1h.

[...]

 Linear response to external field (no local field effect), progress :
  Direction:   3
  LATTYP: Found a hexagonal cell.
 ALAT       =     3.1859459497
 C/A-ratio  =    15.6939260082

[...]

The dynamic configuration has the point symmetry C_1h.
 The point group associated with its full space group is C_3v.

[...]

 HEAD OF MICROSCOPIC STATIC DIELECTRIC TENSOR (INDEPENDENT PARTICLE, excluding Hartree and local field effects)
           4.349567    -0.000000    -0.000000
           0.000000     4.349567    -0.000000
          -0.000000     0.000000     2.879886

 Linear response to external field, progress :
  Direction:   1
  LATTYP: Found a hexagonal cell.
 ALAT       =     3.1859459497
 C/A-ratio  =    15.6939260082

[...]

The dynamic configuration has the point symmetry C_2 .

[...]

  Parameters of vdW forcefield:
            C6ts              R0ts           ALPHAts        RELVOL
            (au)              (au)            (au)
   W         873.722          4.102         72.113          1.015
   W         873.722          4.102         72.113          1.015
   S         135.462          3.862         19.707          1.005
   S         132.616          3.848         19.498          0.995
   S         132.616          3.848         19.498          0.995
   S         135.462          3.862         19.707          1.005
  Edisp (eV):   -1.45201

[...]

 PIEZOELECTRIC TENSOR FIELD DIRECTION 1  (e Angst)
    -0.00273  0.00000  0.00000           ( -0.00014  0.00000  0.00000)
     0.00000  0.00372  0.00039           (  0.00000  0.00009  0.00000)
     0.00000  0.00037 -0.00037           (  0.00000  0.00000 -0.00003)

 PIEZOELECTRIC TENSOR FIELD DIRECTION 1  (C/m^2)
    -0.00010  0.00000  0.00000
     0.00000  0.00014  0.00001
     0.00000  0.00001 -0.00001

      POSITION         DIRECTION 1           BORN EFFECTIVE CHARGE    (rigid.aug.   ionic)
     -0.00000      0.91970     21.92500    -0.45058 -0.00036  0.00004 (  1.96478 14.00000)
      1.59297      1.83941     28.07500    -0.45058  0.00036 -0.00004 (  1.96478 14.00000)
      1.59297      1.83941     23.49780     0.24111 -0.00142  0.00010 (  0.65942  6.00000)
      1.59297      1.83941     20.35220     0.25942 -0.00138 -0.00005 (  0.65870  6.00000)
     -0.00000      0.91970     29.64780     0.25942  0.00138  0.00005 (  0.65870  6.00000)
     -0.00000      0.91970     26.50220     0.24111  0.00142 -0.00010 (  0.65942  6.00000)
    total drift (improves with k-points):   0.09991  0.00000  0.00000

[...]

The dynamic configuration has the point symmetry C_1h.

[...]

 Linear response to external field, progress :
  Direction:   3
  LATTYP: Found a hexagonal cell.
 ALAT       =     3.1859459497
 C/A-ratio  =    15.6939260082

[...]

The dynamic configuration has the point symmetry C_1h.
 The point group associated with its full space group is C_3v.

[...]

----------------------------------------- Iteration    3(  23)  ---------------------------------------

 Broyden mixing:
  rms(total) = 0.29997E-06    rms(broyden)= 0.29994E-06
  rms(prec ) = 0.32920E-06
  weight for this iteration     100.00

 eigenvalues of (default mixing * dielectric matrix)
  average eigenvalue GAMMA=   2.4993
  9.1625  7.8012  5.6705  4.3355  3.1264  3.1264  2.3820  2.3820  1.9174  1.7645
  1.3822  1.3822  0.6830  0.8004  1.0949  0.9942  0.9942  0.9574  0.9574  0.8794
  0.6918

 Free energy of the ion-electron system (eV)
  -Hartree energ DENC   =        -0.25430340
  -V(xc)+E(xc)   XCENC  =         0.00374338
  PAW double counting   =         0.00787009       -0.00789764
  entropy T*S    EENTRO =         0.00000000
  eigenvalues    EBANDS =        -0.06832728
  free energy    TOTEN  =        -0.31891486 eV

  energy without entropy =       -0.31891486

------------------------ aborting loop because EDIFF is reached ----------------------------------------

 change of polarisation eV/A/(eV/A) component  3 :    -0.004     0.001     0.626
 dielectric tensor                  component  3 :    -0.002     0.001     1.258

[...]

  Hirshfeld charges:
            ion         q(e)
      1     W           0.351
      2     W           0.351
      3     S          -0.175
      4     S          -0.176
      5     S          -0.176
      6     S          -0.175

  Tkatchenko/Scheffler method for vdW energy calculation

  Parameters of vdW forcefield:
            C6ts              R0ts           ALPHAts        RELVOL
            (au)              (au)            (au)
   W         873.722          4.102         72.113          1.015
   W         873.722          4.102         72.113          1.015
   S         135.462          3.862         19.707          1.005
   S         132.616          3.848         19.498          0.995
   S         132.616          3.848         19.498          0.995
   S         135.462          3.862         19.707          1.005
  Edisp (eV):   -1.45201

 PIEZOELECTRIC TENSOR FIELD DIRECTION 3  (e Angst)
     0.00024  0.00000  0.00000           ( -0.00000  0.00000  0.00000)
     0.00000  0.00024  0.00000           (  0.00000 -0.00000  0.00000)
     0.00000  0.00000  0.00014           (  0.00000  0.00000  0.00000)

 PIEZOELECTRIC TENSOR FIELD DIRECTION 3  (C/m^2)
     0.00001  0.00000  0.00000
     0.00000  0.00001  0.00000
     0.00000  0.00000  0.00001

      POSITION         DIRECTION 3           BORN EFFECTIVE CHARGE    (rigid.aug.   ionic)
     -0.00000      0.91970     21.92500    -0.00000  0.00000 -3.59245 (  1.96478 14.00000)
      1.59297      1.83941     28.07500     0.00000 -0.00000 -3.59144 (  1.96478 14.00000)
      1.59297      1.83941     23.49780     0.00000 -0.00000  0.03907 (  0.65942  6.00000)
      1.59297      1.83941     20.35220    -0.00000  0.00000  0.13093 (  0.65870  6.00000)
     -0.00000      0.91970     29.64780     0.00000 -0.00000  0.12544 (  0.65870  6.00000)
     -0.00000      0.91970     26.50220    -0.00000 -0.00000  0.03066 (  0.65942  6.00000)
    total drift (improves with k-points):  -0.00000 -0.00000 -6.85779

[...]

 MACROSCOPIC STATIC DIELECTRIC TENSOR (including local field effects in DFT)
           4.182635    -0.000000     0.000000
           0.000000     4.182635    -0.000000
           0.000000     0.000000     1.257636

  LATTYP: Found a hexagonal cell.
 ALAT       =     3.1859459497
 C/A-ratio  =    15.6939260082

  Lattice vectors:

 A1 = (   3.1859459497,   0.0000000000,   0.0000000000)
 A2 = (  -1.5929729748,   2.7591101275,   0.0000000000)
 A3 = (   0.0000000000,   0.0000000000,  50.0000000000)

Analysis of symmetry for initial positions (statically):
 Subroutine PRICEL returns:
 Original cell was already a primitive cell.

[...]

The static configuration has the point symmetry C_2h.
 The point group associated with its full space group is D_3d.

Analysis of symmetry for dynamics (positions and initial velocities):
 Subroutine PRICEL returns:
 Original cell was already a primitive cell.

 Routine SETGRP: Setting up the symmetry group for a
 hexagonal supercell.

 Subroutine GETGRP returns: Found 12 space group operations
 (whereof  4 operations were pure point group operations)
 out of a pool of 24 trial point group operations.

The dynamic configuration has the point symmetry C_2h.
 The point group associated with its full space group is D_3d.

 Subroutine INISYM returns: Found 12 space group operations
 (whereof  4 operations are pure point group operations),
 and found     1 'primitive' translations

 MACROSCOPIC STATIC DIELECTRIC TENSOR (including local field effects in DFT)
           4.182635    -0.000000     0.000000
           0.000000     4.182635    -0.000000
           0.000000     0.000000     1.257636

 PIEZOELECTRIC TENSOR  for field in x, y, z        (e  Angst)
          XX          YY          ZZ          XY          YZ          ZX
  x    -0.00273     0.00372    -0.00037     0.00000     0.00037     0.00000
  y    -0.00448     0.00753     0.00118     0.00000     0.00013     0.00000
  z     0.00024     0.00024     0.00014     0.00000     0.00000     0.00000

 PIEZOELECTRIC TENSOR  for field in x, y, z        (C/m^2)
          XX          YY          ZZ          XY          YZ          ZX
  x     0.00000     0.00000     0.00000     0.00000     0.00000     0.00000
  y     0.00000     0.00000     0.00000     0.00000     0.00000     0.00000
  z     0.00000     0.00000     0.00000     0.00000     0.00000     0.00000

 BORN EFFECTIVE CHARGES (in e, cummulative output)
 ion    1
    1    -0.45058    -0.00036     0.00004
    2     0.00000    -0.45140     0.00003
    3    -0.00000     0.00000    -3.59245
 ion    2
    1    -0.45058     0.00036    -0.00004
    2     0.00000    -0.44979    -0.00001
    3     0.00000    -0.00000    -3.59144
 ion    3
    1     0.24111    -0.00142     0.00010
    2     0.00000     0.24155     0.00076
    3     0.00000    -0.00000     0.03907
 ion    4
    1     0.25942    -0.00138    -0.00005
    2     0.00000     0.25984    -0.00051
    3    -0.00000     0.00000     0.13093
 ion    5
    1     0.25942     0.00138     0.00005
    2    -0.00000     0.25900     0.00050
    3     0.00000    -0.00000     0.12544
 ion    6
    1     0.24111     0.00142    -0.00010
    2     0.00000     0.24066    -0.00075
    3    -0.00000    -0.00000     0.03066

 writing wavefunctions
 BZINTS: Fermi energy: -2.023764; 52.000000 electrons
         Band energy:***********;  BLOECHL correction:  0.000000