 vasp.5.4.1 24Jun15 (build Apr 13 2016 13:07:19) complex

 executed on           IFC91_ompi date 2019.09.13  18:44:36

 INCAR:
 POTCAR:    PAW_PBE Mo_sv_GW 05Dec2013
 POTCAR:    PAW_PBE Se_GW 20Mar2012

 POTCAR:    PAW_PBE Mo_sv_GW 05Dec2013
   VRHFIN =Mo: 4s4p5s4d

   TITEL  = PAW_PBE Mo_sv_GW 05Dec2013
   POMASS =   95.940; ZVAL   =   14.000    mass and valenz
   ENMAX  =  344.914; ENMIN  =  258.686 eV

 POTCAR:    PAW_PBE Se_GW 20Mar2012
   VRHFIN =Se: s2p4

   TITEL  = PAW_PBE Se_GW 20Mar2012
   POMASS =   78.960; ZVAL   =    6.000    mass and valenz
   ENMAX  =  211.555; ENMIN  =  158.666 eV

  PAW_PBE Mo_sv_GW 05Dec2013            :
  PAW_PBE Se_GW 20Mar2012               :

 POSCAR: Mo Se
  positions in cartesian coordinates
 exchange correlation table for  LEXCH =        8
   RHO(1)=    0.500       N(1)  =     2000
   RHO(2)=  100.500       N(2)  =     4000

 ion  position               nearest neighbor table
   1  0.167  0.333  0.500-   2 2.54   3 2.54   2 2.54   3 2.54   2 2.54   3 2.54
   2  0.833  0.667  0.533-   1 2.54   1 2.54   1 2.54
   3  0.833  0.667  0.467-   1 2.54   1 2.54   1 2.54

  LATTYP: Found a hexagonal cell.
 ALAT       =     3.3197487879
 C/A-ratio  =    15.0613806029

  Lattice vectors:

 A1 = (   3.3197487879,   0.0000000000,   0.0000000000)
 A2 = (  -1.6598743939,   2.8749867845,   0.0000000000)
 A3 = (   0.0000000000,   0.0000000000,  50.0000000000)

Analysis of symmetry for initial positions (statically):
 Subroutine PRICEL returns:
 Original cell was already a primitive cell.

 Routine SETGRP: Setting up the symmetry group for a
 hexagonal supercell.

 Subroutine GETGRP returns: Found 12 space group operations
 (whereof  4 operations were pure point group operations)
 out of a pool of 24 trial point group operations.

The static configuration has the point symmetry C_2v.
 The point group associated with its full space group is D_3h.

Analysis of symmetry for dynamics (positions and initial velocities):
 Subroutine PRICEL returns:
 Original cell was already a primitive cell.

[...]

The dynamic configuration has the point symmetry C_2v.
 The point group associated with its full space group is D_3h.

 Subroutine INISYM returns: Found 12 space group operations
 (whereof  4 operations are pure point group operations),
 and found     1 'primitive' translations

 KPOINTS: KPOINTS created by Atomic Simulation Env

Automatic generation of k-mesh.
Space group operators:
 irot       det(A)        alpha          n_x          n_y          n_z        tau_x        tau_y        tau_z
    1     1.000000     0.000000     1.000000     0.000000     0.000000     0.000000     0.000000     0.000000
    2    -1.000000   180.000000     0.000000     0.000000     1.000000     0.000000     0.000000     0.000000
    3    -1.000000   180.000000     1.000000     0.000000     0.000000     0.000000     0.000000     0.000000
    4     1.000000   180.000000     0.000000     1.000000     0.000000     0.000000     0.000000     0.000000
    5    -1.000000    60.000000     0.000000     0.000000    -1.000000     0.000000     0.500000     0.000000
    6     1.000000   120.000000     0.000000     0.000000    -1.000000     0.500000     0.500000     0.000000
    7     1.000000   120.000000     0.000000     0.000000     1.000000     0.000000     0.500000     0.000000
    8    -1.000000    60.000000     0.000000     0.000000     1.000000     0.500000     0.500000     0.000000
    9     1.000000   180.000000     0.866025    -0.500000     0.000000     0.500000     0.500000     0.000000
   10    -1.000000   180.000000     0.500000    -0.866025     0.000000     0.000000     0.500000     0.000000
   11    -1.000000   180.000000    -0.500000    -0.866025     0.000000     0.500000     0.500000     0.000000
   12     1.000000   180.000000     0.866025     0.500000     0.000000     0.000000     0.500000     0.000000

 Subroutine IBZKPT returns following result:

 Found     37 irreducible k-points:

 Following reciprocal coordinates:
            Coordinates               Weight
  0.000000  0.000000  0.000000      1.000000
  0.055556  0.000000  0.000000      6.000000
  0.111111  0.000000  0.000000      6.000000
  0.166667  0.000000  0.000000      6.000000
  0.222222  0.000000  0.000000      6.000000
  0.277778  0.000000  0.000000      6.000000
  0.333333  0.000000  0.000000      6.000000
  0.388889  0.000000  0.000000      6.000000
  0.444444  0.000000  0.000000      6.000000
  0.500000  0.000000  0.000000      3.000000
  0.055556  0.055556  0.000000      6.000000
  0.111111  0.055556  0.000000     12.000000
  0.166667  0.055556  0.000000     12.000000
  0.222222  0.055556  0.000000     12.000000
  0.277778  0.055556  0.000000     12.000000
  0.333333  0.055556  0.000000     12.000000
  0.388889  0.055556  0.000000     12.000000
  0.444444  0.055556  0.000000     12.000000
  0.111111  0.111111  0.000000      6.000000
  0.166667  0.111111  0.000000     12.000000
  0.222222  0.111111  0.000000     12.000000
  0.277778  0.111111  0.000000     12.000000
  0.333333  0.111111  0.000000     12.000000
  0.388889  0.111111  0.000000     12.000000
  0.444444  0.111111  0.000000      6.000000
  0.166667  0.166667  0.000000      6.000000
  0.222222  0.166667  0.000000     12.000000
  0.277778  0.166667  0.000000     12.000000
  0.333333  0.166667  0.000000     12.000000
  0.388889  0.166667  0.000000     12.000000
  0.222222  0.222222  0.000000      6.000000
  0.277778  0.222222  0.000000     12.000000
  0.333333  0.222222  0.000000     12.000000
  0.388889  0.222222  0.000000      6.000000
  0.277778  0.277778  0.000000      6.000000
  0.333333  0.277778  0.000000     12.000000
  0.333333  0.333333  0.000000      2.000000

 Following cartesian coordinates:
            Coordinates               Weight
  0.000000  0.000000  0.000000      1.000000
  0.016735  0.009662  0.000000      6.000000
  0.033470  0.019324  0.000000      6.000000
  0.050205  0.028986  0.000000      6.000000
  0.066939  0.038648  0.000000      6.000000
  0.083674  0.048309  0.000000      6.000000
  0.100409  0.057971  0.000000      6.000000
  0.117144  0.067633  0.000000      6.000000
  0.133879  0.077295  0.000000      6.000000
  0.150614  0.086957  0.000000      3.000000
  0.016735  0.028986  0.000000      6.000000
  0.033470  0.038648  0.000000     12.000000
  0.050205  0.048309  0.000000     12.000000
  0.066939  0.057971  0.000000     12.000000
  0.083674  0.067633  0.000000     12.000000
  0.100409  0.077295  0.000000     12.000000
  0.117144  0.086957  0.000000     12.000000
  0.133879  0.096619  0.000000     12.000000
  0.033470  0.057971  0.000000      6.000000
  0.050205  0.067633  0.000000     12.000000
  0.066939  0.077295  0.000000     12.000000
  0.083674  0.086957  0.000000     12.000000
  0.100409  0.096619  0.000000     12.000000
  0.117144  0.106281  0.000000     12.000000
  0.133879  0.115943  0.000000      6.000000
  0.050205  0.086957  0.000000      6.000000
  0.066939  0.096619  0.000000     12.000000
  0.083674  0.106281  0.000000     12.000000
  0.100409  0.115943  0.000000     12.000000
  0.117144  0.125604  0.000000     12.000000
  0.066939  0.115943  0.000000      6.000000
  0.083674  0.125604  0.000000     12.000000
  0.100409  0.135266  0.000000     12.000000
  0.117144  0.144928  0.000000      6.000000
  0.083674  0.144928  0.000000      6.000000
  0.100409  0.154590  0.000000     12.000000
  0.100409  0.173914  0.000000      2.000000

 TETIRR: Found    169 inequivalent tetrahedra from     1944

 Subroutine IBZKPT_HF returns following result:

 Found    324 k-points in 1st BZ
 the following    324 k-points will be used (e.g. in the exchange kernel)
 Following reciprocal coordinates:   # in IRBZ
  0.000000  0.000000  0.000000    0.00308642   1 t-inv F
  0.055556  0.000000  0.000000    0.00308642   2 t-inv F
  0.111111  0.000000  0.000000    0.00308642   3 t-inv F
  0.166667  0.000000  0.000000    0.00308642   4 t-inv F
  0.222222  0.000000  0.000000    0.00308642   5 t-inv F
  0.277778  0.000000  0.000000    0.00308642   6 t-inv F
  0.333333  0.000000  0.000000    0.00308642   7 t-inv F
  0.388889  0.000000  0.000000    0.00308642   8 t-inv F
  0.444444  0.000000  0.000000    0.00308642   9 t-inv F
  0.500000  0.000000  0.000000    0.00308642  10 t-inv F
  0.055556  0.055556  0.000000    0.00308642  11 t-inv F
  0.111111  0.055556  0.000000    0.00308642  12 t-inv F
  0.166667  0.055556  0.000000    0.00308642  13 t-inv F
  0.222222  0.055556  0.000000    0.00308642  14 t-inv F
  0.277778  0.055556  0.000000    0.00308642  15 t-inv F
  0.333333  0.055556  0.000000    0.00308642  16 t-inv F
  0.388889  0.055556  0.000000    0.00308642  17 t-inv F
  0.444444  0.055556  0.000000    0.00308642  18 t-inv F
  0.111111  0.111111  0.000000    0.00308642  19 t-inv F
  0.166667  0.111111  0.000000    0.00308642  20 t-inv F
  0.222222  0.111111  0.000000    0.00308642  21 t-inv F
  0.277778  0.111111  0.000000    0.00308642  22 t-inv F
  0.333333  0.111111  0.000000    0.00308642  23 t-inv F
  0.388889  0.111111  0.000000    0.00308642  24 t-inv F
  0.444444  0.111111  0.000000    0.00308642  25 t-inv F
  0.166667  0.166667  0.000000    0.00308642  26 t-inv F
  0.222222  0.166667  0.000000    0.00308642  27 t-inv F
  0.277778  0.166667  0.000000    0.00308642  28 t-inv F
  0.333333  0.166667  0.000000    0.00308642  29 t-inv F
  0.388889  0.166667  0.000000    0.00308642  30 t-inv F
  0.222222  0.222222  0.000000    0.00308642  31 t-inv F
  0.277778  0.222222  0.000000    0.00308642  32 t-inv F
  0.333333  0.222222  0.000000    0.00308642  33 t-inv F
  0.388889  0.222222  0.000000    0.00308642  34 t-inv F
  0.277778  0.277778  0.000000    0.00308642  35 t-inv F
  0.333333  0.277778  0.000000    0.00308642  36 t-inv F
  0.333333  0.333333  0.000000    0.00308642  37 t-inv F
 -0.055556  0.055556  0.000000    0.00308642   2 t-inv F
  0.000000 -0.055556 -0.000000    0.00308642   2 t-inv F
 -0.111111  0.111111  0.000000    0.00308642   3 t-inv F
  0.000000 -0.111111 -0.000000    0.00308642   3 t-inv F
 -0.166667  0.166667  0.000000    0.00308642   4 t-inv F
  0.000000 -0.166667 -0.000000    0.00308642   4 t-inv F
 -0.222222  0.222222  0.000000    0.00308642   5 t-inv F
  0.000000 -0.222222 -0.000000    0.00308642   5 t-inv F
 -0.277778  0.277778  0.000000    0.00308642   6 t-inv F
  0.000000 -0.277778 -0.000000    0.00308642   6 t-inv F
 -0.333333  0.333333  0.000000    0.00308642   7 t-inv F
  0.000000 -0.333333 -0.000000    0.00308642   7 t-inv F
 -0.388889  0.388889  0.000000    0.00308642   8 t-inv F
  0.000000 -0.388889 -0.000000    0.00308642   8 t-inv F
 -0.444444  0.444444  0.000000    0.00308642   9 t-inv F
  0.000000 -0.444444 -0.000000    0.00308642   9 t-inv F
 -0.500000  0.500000  0.000000    0.00308642  10 t-inv F
  0.000000 -0.500000 -0.000000    0.00308642  10 t-inv F
 -0.055556  0.111111  0.000000    0.00308642  11 t-inv F
  0.055556 -0.111111 -0.000000    0.00308642  11 t-inv F
 -0.111111  0.055556  0.000000    0.00308642  11 t-inv F
 -0.055556 -0.055556 -0.000000    0.00308642  11 t-inv F
  0.111111 -0.055556  0.000000    0.00308642  11 t-inv F
[...]
  0.500000 -0.277778 -0.000000    0.00308642  32 t-inv T
[...]
 augmentation part       -2.4140782 magnetization

[...]

 BZINTS: Fermi energy: -3.860468; 26.000000 electrons
         Band energy:-520.960548;  BLOECHL correction:  0.000000

 eigenvalue-minimisations  :  2688
 total energy-change (2. order) :-0.4395133E-08  ( 0.3081064E-11)
 number of electron      25.9999997 magnetization
 augmentation part       -2.4140782 magnetization

 Free energy of the ion-electron system (eV)
  alpha Z        PSCENC =        13.74168504
  Ewald energy   TEWEN  =     20567.09771385
  -Hartree energ DENC   =    -22552.21529801
  -exchange      EXHF   =         0.00000000
  -V(xc)+E(xc)   XCENC  =        64.33706045
  PAW double counting   =      1889.04988802    -1857.47834347
  entropy T*S    EENTRO =         0.00000000
  eigenvalues    EBANDS =      -520.96054823
  atomic energy  EATOM  =      2375.65847088
  Solvation  Ediel_sol  =         0.00000000
  free energy    TOTEN  =       -20.76937148 eV

  energy without entropy =      -20.76937148  energy(sigma->0) =      -20.76937148

 average (electrostatic) potential at core
  the test charge radii are     0.8928  1.0808
  (the norm of the test charge is              1.0000)
       1-110.6717       2 -61.9770       3 -61.9770

 E-fermi :  -3.8605     XC(G=0):  -1.6197     alpha+bet : -1.4941

 k-point     1 :       0.0000    0.0000    0.0000
  band No.  band energies     occupation
      1     -64.7421      2.00000
      2     -38.8802      2.00000
      3     -38.7155      2.00000
      4     -38.7155      2.00000
      5     -18.0453      2.00000
      6     -17.0491      2.00000
      7      -9.2481      2.00000
      8      -6.0153      2.00000
      9      -6.0153      2.00000
     10      -5.7018      2.00000
     11      -5.0428      2.00000
     12      -5.0428      2.00000
     13      -4.1336      2.00000
     14      -1.0622      0.00000
     15      -1.0622      0.00000
     16      -0.8222      0.00000
     17      -0.8222      0.00000
     18       0.7618      0.00000
     19       1.0647      0.00000
     20       1.4089      0.00000
     21       1.4986      0.00000
     22       1.5844      0.00000
     23       1.8147      0.00000
     24       1.8760      0.00000
     25       2.1803      0.00000
     26       2.2980      0.00000
     27       2.6430      0.00000
     28       2.9336      0.00000

[...]

 k-point    37 :       0.3333    0.3333    0.0000
  band No.  band energies     occupation
      1     -64.7188      2.00000
      2     -38.8976      2.00000
      3     -38.8686      2.00000
      4     -38.8232      2.00000
      5     -16.0793      2.00000
      6     -15.9708      2.00000
      7      -8.8621      2.00000
      8      -8.3586      2.00000
      9      -7.8186      2.00000
     10      -7.2654      2.00000
     11      -6.7983      2.00000
     12      -5.9841      2.00000
     13      -3.8881      2.00000
     14      -2.4378      0.00000
     15      -1.3031      0.00000
     16      -0.8439      0.00000
     17       0.4331      0.00000
     18       2.6408      0.00000
     19       2.9190      0.00000
     20       5.0231      0.00000
     21       5.7379      0.00000
     22       6.0867      0.00000
     23       6.7283      0.00000
     24       6.8121      0.00000
     25       7.1413      0.00000
     26       7.4647      0.00000
     27       7.4741      0.00000
     28       7.4924      0.00000

 soft charge-density along one line, spin component           1
         0         1         2         3         4         5         6         7         8         9
 total charge-density along one line

------------------------ aborting loop because EDIFF is reached ----------------------------------------

  Hirshfeld charges:
            ion         q(e)
      1     Mo          0.311
      2     Se         -0.156
      3     Se         -0.156

  Atomic reference data used in the T-S method for vdW correction:
            C6at              R0at           ALPHAat      REFSTATE
            (au)              (au)            (au)
   Mo       1028.730          4.101         88.420         0
   Se        210.000          4.044         25.000         0

  Tkatchenko/Scheffler method for vdW energy calculation

  Parameters of vdW forcefield:
            C6ts              R0ts           ALPHAts        RELVOL
            (au)              (au)            (au)
   Mo       1078.577          4.133         90.537          1.024
   Se        211.078          4.047         25.064          1.003
   Se        211.078          4.047         25.064          1.003

  IVDW =  20
  VDW_RADIUS =    50.000 A
  VDW_IDAMPF =  0
  VDW_S6 =     1.000
  VDW_SR =     0.940
  VDW_D =    20.000
  LVDW_EWALD = T
  Edisp (eV):   -0.62792

  FORCE on cell =-STRESS in cart. coord.  units (eV):
  Direction    XX          YY          ZZ          XY          YZ          ZX
  Alpha Z    13.74169    13.74169    13.74169
  Ewald   21908.12769 21908.12769-23249.15836    -0.00000     0.00000     0.00000
  Hartree 22297.76770 22297.76770-22043.32008    -0.00000    -0.00000    -0.00000
  E(xc)    -111.77077  -111.77077  -112.10363     0.00000    -0.00000    -0.00000
  Local  -44664.93229-44664.93234 44829.70229    -0.00004     0.00000    -0.00000
  n-local    52.60765    52.05113    55.26191     0.96657    -0.00000     0.00000
  augment   -11.13079   -11.13074   -12.04497     0.00004    -0.00000     0.00000
  Kinetic   513.69442   517.18067   517.54548   -12.62550    -0.00000    -0.00000
  Fock        0.00000     0.00000     0.00000     0.00000     0.00000     0.00000
  vdW        -0.65303    -0.65303    -0.20621     0.00000     0.00000     0.00000
  Total      -1.08287    -1.08287    -0.58187     0.00000     0.00000    -0.00000
  in kB      -3.63559    -3.63559    -1.95354     0.00000     0.00000    -0.00000

 VOLUME and BASIS-vectors are now :
  energy-cutoff  :      344.91
  volume of cell :      477.21
      direct lattice vectors                 reciprocal lattice vectors
     3.319748788  0.000000000  0.000000000     0.301227612  0.173913843  0.000000000
    -1.659874394  2.874986784  0.000000000     0.000000000  0.347827686  0.000000000
     0.000000000  0.000000000 50.000000000     0.000000000  0.000000000  0.020000000

  length of vectors
     3.319748788  3.319748788 50.000000000     0.347827686  0.347827686  0.020000000

 FORCES acting on ions
    electron-ion (+dipol)            ewald-force                    non-local-force                 convergence-correction
   0.253E-07 -.145E-07 0.139E-10   0.105E-10 -.619E-11 0.000E+00   0.382E-16 0.694E-17 0.000E+00   -.127E-09 0.734E-10 -.437E-12
   -.529E-07 -.110E-06 -.982E+03   -.527E-11 0.307E-11 0.985E+03   -.462E-16 -.199E-16 -.259E+01   -.149E-12 0.888E-13 -.226E-05
   0.689E-07 0.101E-06 0.982E+03   -.527E-11 0.307E-11 -.985E+03   -.158E-16 -.213E-16 0.259E+01   -.157E-12 0.949E-13 0.226E-05
   0.412E-07 -.237E-07 0.394E-10   -.594E-14 -.429E-13 0.000E+00   -.239E-16 -.343E-16 0.000E+00   -.128E-09 0.736E-10 -.608E-12

 POSITION                                       TOTAL-FORCE (eV/Angst)
     -0.00000      0.95833     25.00000        -0.000000     -0.000000     -0.000000
      1.65987      1.91666     26.66903         0.000000      0.000000     -0.030303
      1.65987      1.91666     23.33097         0.000000      0.000000      0.030303
    total drift:                                0.000000     -0.000000      0.000000

  FREE ENERGIE OF THE ION-ELECTRON SYSTEM (eV)
  free  energy   TOTEN  =       -21.39728700 eV

  energy  without entropy=      -21.39728700  energy(sigma->0) =      -21.39728700

 Linear response reoptimize wavefunctions
 Linear response G [H, r] |phi>, progress :
  Direction:   1

[...]

  free energy    TOTEN  =      -106.18917918 eV

[...]

 Linear response G [H, r] |phi>, progress :
  Direction:   2

[...]

 Linear response G [H, r] |phi>, progress :
  Direction:   3

[...]

  free energy    TOTEN  =      -115.85035629 eV

[...]

 Linear response to external field (no local field effect), progress :
  Direction:   1
  LATTYP: Found a hexagonal cell.
 ALAT       =     3.3197487879
 C/A-ratio  =    15.0613806029

[...]

The dynamic configuration has the point symmetry C_1h.

[...]

 Free energy of the ion-electron system (eV)
  -Hartree energ DENC   =         0.00000000
  -V(xc)+E(xc)   XCENC  =         0.00000000
  PAW double counting   =         0.00000000        0.00000000
  entropy T*S    EENTRO =         0.00000000
  eigenvalues    EBANDS =        -2.15943486
  free energy    TOTEN  =        -2.15943486 eV

  energy without entropy =       -2.15943486

[...]

 change of polarisation eV/A/(eV/A) component  1 :     5.584    -0.380     0.000
 dielectric tensor                  component  1 :     3.117    -0.144     0.000

[...]

The dynamic configuration has the point symmetry C_2v.

[...]

 Linear response to external field (no local field effect), progress :
  Direction:   3
  LATTYP: Found a hexagonal cell.
 ALAT       =     3.3197487879
 C/A-ratio  =    15.0613806029

[...]

The dynamic configuration has the point symmetry C_1h.
 The point group associated with its full space group is C_3v.

[...]

 HEAD OF MICROSCOPIC STATIC DIELECTRIC TENSOR (INDEPENDENT PARTICLE, excluding Hartree and local field effects)
           3.127745     0.000000     0.000000
           0.000000     3.127745     0.000000
           0.000000     0.000000     2.063461

 Linear response to external field, progress :
  Direction:   1
  LATTYP: Found a hexagonal cell.
 ALAT       =     3.3197487879
 C/A-ratio  =    15.0613806029

[...]

The dynamic configuration has the point symmetry C_1h.

[...]

  Parameters of vdW forcefield:
            C6ts              R0ts           ALPHAts        RELVOL
            (au)              (au)            (au)
   Mo       1078.577          4.133         90.537          1.024
   Se        211.078          4.047         25.064          1.003
   Se        211.078          4.047         25.064          1.003
  Edisp (eV):   -0.62792

[...]

 PIEZOELECTRIC TENSOR FIELD DIRECTION 1  (e Angst)
    -0.00280 -1.61821  0.00000           ( -0.00001  0.00366  0.00000)
    -1.61821  0.00223  0.00000           (  0.00366  0.00005  0.00000)
     0.00000  0.00000 -0.00016           (  0.00000  0.00000  0.00002)

 PIEZOELECTRIC TENSOR FIELD DIRECTION 1  (C/m^2)
    -0.00009 -0.05433  0.00000
    -0.05433  0.00007  0.00000
     0.00000  0.00000 -0.00001

      POSITION         DIRECTION 1           BORN EFFECTIVE CHARGE    (rigid.aug.   ionic)
     -0.00000      0.95833     25.00000    -1.76359 -0.00062  0.00000 (  0.16888 14.00000)
      1.65987      1.91666     26.66903     0.87730 -0.00033 -0.00016 (  1.12260  6.00000)
      1.65987      1.91666     23.33097     0.87730 -0.00033  0.00016 (  1.12260  6.00000)
    total drift (improves with k-points):  -0.00899 -0.00127  0.00000

[...]

The dynamic configuration has the point symmetry C_2v.

[...]

 Linear response to external field, progress :
  Direction:   3
  LATTYP: Found a hexagonal cell.
 ALAT       =     3.3197487879
 C/A-ratio  =    15.0613806029

[...]

The dynamic configuration has the point symmetry C_1h.
 The point group associated with its full space group is C_3v.

[...]

----------------------------------------- Iteration    3(  21)  ---------------------------------------

 Broyden mixing:
  rms(total) = 0.67756E-06    rms(broyden)= 0.67747E-06
  rms(prec ) = 0.81293E-06
  weight for this iteration     100.00

 eigenvalues of (default mixing * dielectric matrix)
  average eigenvalue GAMMA=   2.5872
  8.5736  7.5250  4.8972  4.8972  3.1514  3.1514  2.3537  2.1266  1.8666  1.8666
  1.4263  0.7671  1.1097  1.0045  1.0045  0.9650  0.9598  0.9598  0.5509

 Free energy of the ion-electron system (eV)
  -Hartree energ DENC   =        -0.13602625
  -V(xc)+E(xc)   XCENC  =         0.00322715
  PAW double counting   =         0.00492985       -0.00488606
  entropy T*S    EENTRO =         0.00000000
  eigenvalues    EBANDS =        -0.03693570
  free energy    TOTEN  =        -0.16969100 eV

  energy without entropy =       -0.16969100

------------------------ aborting loop because EDIFF is reached ----------------------------------------

 change of polarisation eV/A/(eV/A) component  3 :     0.000     0.000     0.331
 dielectric tensor                  component  3 :     0.000     0.000     1.125

[...]

  Hirshfeld charges:
            ion         q(e)
      1     Mo          0.311
      2     Se         -0.156
      3     Se         -0.156

  Tkatchenko/Scheffler method for vdW energy calculation

  Parameters of vdW forcefield:
            C6ts              R0ts           ALPHAts        RELVOL
            (au)              (au)            (au)
   Mo       1078.577          4.133         90.537          1.024
   Se        211.078          4.047         25.064          1.003
   Se        211.078          4.047         25.064          1.003
  Edisp (eV):   -0.62792

 PIEZOELECTRIC TENSOR FIELD DIRECTION 3  (e Angst)
    -0.00000 -0.00000  0.00000           ( -0.00000 -0.00000  0.00000)
     0.00000 -0.00000  0.00000           (  0.00000 -0.00000  0.00000)
    -0.00000  0.00000 -0.00000           (  0.00000  0.00000 -0.00000)

 PIEZOELECTRIC TENSOR FIELD DIRECTION 3  (C/m^2)
    -0.00000 -0.00000  0.00000
     0.00000 -0.00000  0.00000
    -0.00000  0.00000 -0.00000

      POSITION         DIRECTION 3           BORN EFFECTIVE CHARGE    (rigid.aug.   ionic)
     -0.00000      0.95833     25.00000     0.00000  0.00000 -0.12294 (  0.16888 14.00000)
      1.65987      1.91666     26.66903     0.00000  0.00000  0.05895 (  1.12260  6.00000)
      1.65987      1.91666     23.33097    -0.00000  0.00000  0.05895 (  1.12260  6.00000)
    total drift (improves with k-points):   0.00000  0.00000 -0.00503

[...]

 MACROSCOPIC STATIC DIELECTRIC TENSOR (including local field effects in DFT)
           3.021059    -0.000000    -0.000000
          -0.000000     3.021059    -0.000000
          -0.000000     0.000000     1.125375

  LATTYP: Found a hexagonal cell.
 ALAT       =     3.3197487879
 C/A-ratio  =    15.0613806029

  Lattice vectors:

 A1 = (   3.3197487879,   0.0000000000,   0.0000000000)
 A2 = (  -1.6598743939,   2.8749867845,   0.0000000000)
 A3 = (   0.0000000000,   0.0000000000,  50.0000000000)

Analysis of symmetry for initial positions (statically):
 Subroutine PRICEL returns:
 Original cell was already a primitive cell.

[...]

The static configuration has the point symmetry C_2v.
 The point group associated with its full space group is D_3h.

Analysis of symmetry for dynamics (positions and initial velocities):
 Subroutine PRICEL returns:
 Original cell was already a primitive cell.

 Routine SETGRP: Setting up the symmetry group for a
 hexagonal supercell.

 Subroutine GETGRP returns: Found 12 space group operations
 (whereof  4 operations were pure point group operations)
 out of a pool of 24 trial point group operations.

The dynamic configuration has the point symmetry C_2v.
 The point group associated with its full space group is D_3h.

 Subroutine INISYM returns: Found 12 space group operations
 (whereof  4 operations are pure point group operations),
 and found     1 'primitive' translations

 MACROSCOPIC STATIC DIELECTRIC TENSOR (including local field effects in DFT)
           3.021059    -0.000000    -0.000000
          -0.000000     3.021059    -0.000000
          -0.000000     0.000000     1.125375

 PIEZOELECTRIC TENSOR  for field in x, y, z        (e  Angst)
          XX          YY          ZZ          XY          YZ          ZX
  x    -0.00280     0.00223    -0.00016    -1.61821     0.00000     0.00000
  y    -1.62067     1.62201     0.00053     0.00000     0.00000     0.00000
  z    -0.00000    -0.00000    -0.00000     0.00000     0.00000     0.00000

 PIEZOELECTRIC TENSOR  for field in x, y, z        (C/m^2)
          XX          YY          ZZ          XY          YZ          ZX
  x     0.00000     0.00000     0.00000    -0.05438     0.00000     0.00000
  y    -0.05438     0.05438     0.00000     0.00000     0.00000     0.00000
  z     0.00000     0.00000     0.00000    -0.00000     0.00000    -0.00000

 BORN EFFECTIVE CHARGES (in e, cummulative output)
 ion    1
    1    -1.76359    -0.00062     0.00000
    2    -0.00000    -1.76388     0.00000
    3     0.00000     0.00000    -0.12294
 ion    2
    1     0.87730    -0.00033    -0.00016
    2     0.00000     0.87752     0.00045
    3     0.00000     0.00000     0.05895
 ion    3
    1     0.87730    -0.00033     0.00016
    2     0.00000     0.87752    -0.00045
    3    -0.00000     0.00000     0.05895

 writing wavefunctions
 BZINTS: Fermi energy: -3.860381; 26.000000 electrons
         Band energy:-520.960515;  BLOECHL correction:  0.000000