 vasp.5.4.1 24Jun15 (build Apr 13 2016 13:07:19) complex

 executed on           IFC91_ompi date 2019.09.14  02:43:04

 INCAR:
 POTCAR:    PAW_PBE W_sv_GW 23Mar2010
 POTCAR:    PAW_PBE Te_GW 22Mar2012

 POTCAR:    PAW_PBE W_sv_GW 23Mar2010
   VRHFIN =W: 5p6s5d

   TITEL  = PAW_PBE W_sv_GW 23Mar2010
   POMASS =  183.850; ZVAL   =   14.000    mass and valenz
   ENMAX  =  317.132; ENMIN  =  237.849 eV

 POTCAR:    PAW_PBE Te_GW 22Mar2012
   VRHFIN =Te: s2p4

   TITEL  = PAW_PBE Te_GW 22Mar2012
   POMASS =  127.600; ZVAL   =    6.000    mass and valenz
   ENMAX  =  174.982; ENMIN  =  131.236 eV

  PAW_PBE W_sv_GW 23Mar2010             :
  PAW_PBE Te_GW 22Mar2012               :

 POSCAR:  W Te
  positions in cartesian coordinates
 exchange correlation table for  LEXCH =        8
   RHO(1)=    0.500       N(1)  =     2000
   RHO(2)=  100.500       N(2)  =     4000

 ion  position               nearest neighbor table
   1  0.167  0.333  0.429-   3 2.74   4 2.74   3 2.74   4 2.74   3 2.74   4 2.74
   2  0.833  0.667  0.571-   5 2.74   6 2.74   5 2.74   6 2.74   5 2.74   6 2.74
   3  0.833  0.667  0.466-   1 2.74   1 2.74   1 2.74   4 3.62
   4  0.833  0.667  0.393-   1 2.74   1 2.74   1 2.74   3 3.62
   5  0.167  0.333  0.607-   2 2.74   2 2.74   2 2.74   6 3.62
   6  0.167  0.333  0.534-   2 2.74   2 2.74   2 2.74   5 3.62

  LATTYP: Found a hexagonal cell.
 ALAT       =     3.5500762221
 C/A-ratio  =    14.0842046402

  Lattice vectors:

 A1 = (   3.5500762221,   0.0000000000,   0.0000000000)
 A2 = (  -1.7750381110,   3.0744561937,   0.0000000000)
 A3 = (   0.0000000000,   0.0000000000,  50.0000000000)

Analysis of symmetry for initial positions (statically):
 Subroutine PRICEL returns:
 Original cell was already a primitive cell.

 Routine SETGRP: Setting up the symmetry group for a
 hexagonal supercell.

 Subroutine GETGRP returns: Found 12 space group operations
 (whereof  4 operations were pure point group operations)
 out of a pool of 24 trial point group operations.

The static configuration has the point symmetry C_2h.
 The point group associated with its full space group is D_3d.

Analysis of symmetry for dynamics (positions and initial velocities):
 Subroutine PRICEL returns:
 Original cell was already a primitive cell.

[...]

The dynamic configuration has the point symmetry C_2h.
 The point group associated with its full space group is D_3d.

 Subroutine INISYM returns: Found 12 space group operations
 (whereof  4 operations are pure point group operations),
 and found     1 'primitive' translations

 KPOINTS: KPOINTS created by Atomic Simulation Env

Automatic generation of k-mesh.
Space group operators:
 irot       det(A)        alpha          n_x          n_y          n_z        tau_x        tau_y        tau_z
    1     1.000000     0.000001     1.000000     0.000000     0.000000     0.000000     0.000000     0.000000
    2    -1.000000     0.000001     1.000000     0.000000     0.000000     0.000000     0.000000     0.000000
    3     1.000000   179.999999     1.000000     0.000000     0.000000     0.000000     0.000000     0.000000
    4    -1.000000   179.999999     1.000000     0.000000     0.000000     0.000000     0.000000     0.000000
    5     1.000000   120.000000     0.000000     0.000000    -1.000000     0.500000     0.500000     0.000000
    6    -1.000000   120.000000     0.000000     0.000000    -1.000000     0.500000     0.500000     0.000000
    7     1.000000   120.000000     0.000000     0.000000     1.000000     0.000000     0.500000     0.000000
    8    -1.000000   120.000000     0.000000     0.000000     1.000000     0.000000     0.500000     0.000000
    9     1.000000   180.000000     0.500000    -0.866025     0.000000     0.000000     0.500000     0.000000
   10    -1.000000   180.000000     0.500000    -0.866025     0.000000     0.000000     0.500000     0.000000
   11     1.000000   180.000000    -0.500000    -0.866025     0.000000     0.500000     0.500000     0.000000
   12    -1.000000   180.000000    -0.500000    -0.866025     0.000000     0.500000     0.500000     0.000000

 Subroutine IBZKPT returns following result:

 Found     37 irreducible k-points:

 Following reciprocal coordinates:
            Coordinates               Weight
  0.000000  0.000000  0.000000      1.000000
  0.055556  0.000000  0.000000      6.000000
  0.111111  0.000000  0.000000      6.000000
  0.166667  0.000000  0.000000      6.000000
  0.222222  0.000000  0.000000      6.000000
  0.277778  0.000000  0.000000      6.000000
  0.333333  0.000000  0.000000      6.000000
  0.388889  0.000000  0.000000      6.000000
  0.444444  0.000000  0.000000      6.000000
  0.500000  0.000000  0.000000      3.000000
  0.055556  0.055556  0.000000      6.000000
  0.111111  0.055556  0.000000     12.000000
  0.166667  0.055556  0.000000     12.000000
  0.222222  0.055556  0.000000     12.000000
  0.277778  0.055556  0.000000     12.000000
  0.333333  0.055556  0.000000     12.000000
  0.388889  0.055556  0.000000     12.000000
  0.444444  0.055556  0.000000     12.000000
  0.111111  0.111111  0.000000      6.000000
  0.166667  0.111111  0.000000     12.000000
  0.222222  0.111111  0.000000     12.000000
  0.277778  0.111111  0.000000     12.000000
  0.333333  0.111111  0.000000     12.000000
  0.388889  0.111111  0.000000     12.000000
  0.444444  0.111111  0.000000      6.000000
  0.166667  0.166667  0.000000      6.000000
  0.222222  0.166667  0.000000     12.000000
  0.277778  0.166667  0.000000     12.000000
  0.333333  0.166667  0.000000     12.000000
  0.388889  0.166667  0.000000     12.000000
  0.222222  0.222222  0.000000      6.000000
  0.277778  0.222222  0.000000     12.000000
  0.333333  0.222222  0.000000     12.000000
  0.388889  0.222222  0.000000      6.000000
  0.277778  0.277778  0.000000      6.000000
  0.333333  0.277778  0.000000     12.000000
  0.333333  0.333333  0.000000      2.000000

 Following cartesian coordinates:
            Coordinates               Weight
  0.000000  0.000000  0.000000      1.000000
  0.015649  0.009035  0.000000      6.000000
  0.031298  0.018070  0.000000      6.000000
  0.046947  0.027105  0.000000      6.000000
  0.062596  0.036140  0.000000      6.000000
  0.078246  0.045175  0.000000      6.000000
  0.093895  0.054210  0.000000      6.000000
  0.109544  0.063245  0.000000      6.000000
  0.125193  0.072280  0.000000      6.000000
  0.140842  0.081315  0.000000      3.000000
  0.015649  0.027105  0.000000      6.000000
  0.031298  0.036140  0.000000     12.000000
  0.046947  0.045175  0.000000     12.000000
  0.062596  0.054210  0.000000     12.000000
  0.078246  0.063245  0.000000     12.000000
  0.093895  0.072280  0.000000     12.000000
  0.109544  0.081315  0.000000     12.000000
  0.125193  0.090350  0.000000     12.000000
  0.031298  0.054210  0.000000      6.000000
  0.046947  0.063245  0.000000     12.000000
  0.062596  0.072280  0.000000     12.000000
  0.078246  0.081315  0.000000     12.000000
  0.093895  0.090350  0.000000     12.000000
  0.109544  0.099385  0.000000     12.000000
  0.125193  0.108420  0.000000      6.000000
  0.046947  0.081315  0.000000      6.000000
  0.062596  0.090350  0.000000     12.000000
  0.078246  0.099385  0.000000     12.000000
  0.093895  0.108420  0.000000     12.000000
  0.109544  0.117455  0.000000     12.000000
  0.062596  0.108420  0.000000      6.000000
  0.078246  0.117455  0.000000     12.000000
  0.093895  0.126490  0.000000     12.000000
  0.109544  0.135525  0.000000      6.000000
  0.078246  0.135525  0.000000      6.000000
  0.093895  0.144560  0.000000     12.000000
  0.093895  0.162630  0.000000      2.000000

 TETIRR: Found    169 inequivalent tetrahedra from     1944

 Subroutine IBZKPT_HF returns following result:

 Found    324 k-points in 1st BZ
 the following    324 k-points will be used (e.g. in the exchange kernel)
 Following reciprocal coordinates:   # in IRBZ
  0.000000  0.000000  0.000000    0.00308642   1 t-inv F
  0.055556  0.000000  0.000000    0.00308642   2 t-inv F
  0.111111  0.000000  0.000000    0.00308642   3 t-inv F
  0.166667  0.000000  0.000000    0.00308642   4 t-inv F
  0.222222  0.000000  0.000000    0.00308642   5 t-inv F
  0.277778  0.000000  0.000000    0.00308642   6 t-inv F
  0.333333  0.000000  0.000000    0.00308642   7 t-inv F
  0.388889  0.000000  0.000000    0.00308642   8 t-inv F
  0.444444  0.000000  0.000000    0.00308642   9 t-inv F
  0.500000  0.000000  0.000000    0.00308642  10 t-inv F
  0.055556  0.055556  0.000000    0.00308642  11 t-inv F
  0.111111  0.055556  0.000000    0.00308642  12 t-inv F
  0.166667  0.055556  0.000000    0.00308642  13 t-inv F
  0.222222  0.055556  0.000000    0.00308642  14 t-inv F
  0.277778  0.055556  0.000000    0.00308642  15 t-inv F
  0.333333  0.055556  0.000000    0.00308642  16 t-inv F
  0.388889  0.055556  0.000000    0.00308642  17 t-inv F
  0.444444  0.055556  0.000000    0.00308642  18 t-inv F
  0.111111  0.111111  0.000000    0.00308642  19 t-inv F
  0.166667  0.111111  0.000000    0.00308642  20 t-inv F
  0.222222  0.111111  0.000000    0.00308642  21 t-inv F
  0.277778  0.111111  0.000000    0.00308642  22 t-inv F
  0.333333  0.111111  0.000000    0.00308642  23 t-inv F
  0.388889  0.111111  0.000000    0.00308642  24 t-inv F
  0.444444  0.111111  0.000000    0.00308642  25 t-inv F
  0.166667  0.166667  0.000000    0.00308642  26 t-inv F
  0.222222  0.166667  0.000000    0.00308642  27 t-inv F
  0.277778  0.166667  0.000000    0.00308642  28 t-inv F
  0.333333  0.166667  0.000000    0.00308642  29 t-inv F
  0.388889  0.166667  0.000000    0.00308642  30 t-inv F
  0.222222  0.222222  0.000000    0.00308642  31 t-inv F
  0.277778  0.222222  0.000000    0.00308642  32 t-inv F
  0.333333  0.222222  0.000000    0.00308642  33 t-inv F
  0.388889  0.222222  0.000000    0.00308642  34 t-inv F
  0.277778  0.277778  0.000000    0.00308642  35 t-inv F
  0.333333  0.277778  0.000000    0.00308642  36 t-inv F
  0.333333  0.333333  0.000000    0.00308642  37 t-inv F
 -0.055556 -0.000000 -0.000000    0.00308642   2 t-inv F
  0.055556 -0.055556 -0.000000    0.00308642   2 t-inv F
 -0.055556  0.055556  0.000000    0.00308642   2 t-inv F
  0.000000 -0.055556  0.000000    0.00308642   2 t-inv F
 -0.000000  0.055556 -0.000000    0.00308642   2 t-inv F
 -0.111111 -0.000000 -0.000000    0.00308642   3 t-inv F
  0.111111 -0.111111 -0.000000    0.00308642   3 t-inv F
 -0.111111  0.111111  0.000000    0.00308642   3 t-inv F
  0.000000 -0.111111  0.000000    0.00308642   3 t-inv F
 -0.000000  0.111111 -0.000000    0.00308642   3 t-inv F
 -0.166667 -0.000000 -0.000000    0.00308642   4 t-inv F
  0.166667 -0.166667 -0.000000    0.00308642   4 t-inv F
 -0.166667  0.166667  0.000000    0.00308642   4 t-inv F
  0.000000 -0.166667  0.000000    0.00308642   4 t-inv F
 -0.000000  0.166667 -0.000000    0.00308642   4 t-inv F
 -0.222222 -0.000000 -0.000000    0.00308642   5 t-inv F
  0.222222 -0.222222 -0.000000    0.00308642   5 t-inv F
 -0.222222  0.222222  0.000000    0.00308642   5 t-inv F
  0.000000 -0.222222  0.000000    0.00308642   5 t-inv F
 -0.000000  0.222222 -0.000000    0.00308642   5 t-inv F
[...]
     26      -1.1019      2.00000
     27      -0.0810      0.00000
     28      -0.0810      0.00000
     29       0.6177      0.00000
     30       1.1613      0.00000
     31       1.6085      0.00000
     32       1.6085      0.00000
     33       2.8944      0.00000
     34       2.8944      0.00000
     35       3.4400      0.00000
     36       3.6100      0.00000
     37       3.6100      0.00000
     38       4.1728      0.00000
     39       6.1500      0.00000
     40       6.1500      0.00000
     41       7.1163      0.00000
     42       7.5203      0.00000
     43       7.5203      0.00000
     44       7.5526      0.00000
     45       8.1933      0.00000
     46       8.5028      0.00000
     47       8.5028      0.00000
     48       8.7650      0.00000
     49       8.7650      0.00000
     50       8.7736      0.00000
     51       8.8444      0.00000
     52       8.9189      0.00000
     53       8.9190      0.00000
     54       8.9500      0.00000
     55       8.9501      0.00000
     56       9.0247      0.00000

 soft charge-density along one line, spin component           1
         0         1         2         3         4         5         6         7         8         9
 total charge-density along one line

------------------------ aborting loop because EDIFF is reached ----------------------------------------

  Hirshfeld charges:
            ion         q(e)
      1     W           0.216
      2     W           0.216
      3     Te         -0.107
      4     Te         -0.108
      5     Te         -0.108
      6     Te         -0.107

  Atomic reference data used in the T-S method for vdW correction:
            C6at              R0at           ALPHAat      REFSTATE
            (au)              (au)            (au)
   W         847.930          4.082         71.041         0
   Te        396.000          4.214         37.650         0

  Tkatchenko/Scheffler method for vdW energy calculation

  Parameters of vdW forcefield:
            C6ts              R0ts           ALPHAts        RELVOL
            (au)              (au)            (au)
   W         919.802          4.138         73.990          1.042
   W         919.802          4.138         73.990          1.042
   Te        408.946          4.237         38.260          1.016
   Te        401.502          4.224         37.911          1.007
   Te        401.502          4.224         37.911          1.007
   Te        408.946          4.237         38.260          1.016

  IVDW =  20
  VDW_RADIUS =    50.000 A
  VDW_IDAMPF =  0
  VDW_S6 =     1.000
  VDW_SR =     0.940
  VDW_D =    20.000
  LVDW_EWALD = T
  Edisp (eV):   -1.67794

  FORCE on cell =-STRESS in cart. coord.  units (eV):
  Direction    XX          YY          ZZ          XY          YZ          ZX
  Alpha Z    30.19755    30.19755    30.19755
  Ewald   50715.82122 50715.82122-53216.67076    -0.00000    -0.00000     0.00000
  Hartree 51593.95807 51593.95807-51052.92442    -0.00000    -0.00000    -0.00000
  E(xc)    -260.28404  -260.28404  -261.27848     0.00000     0.00000    -0.00000
  Local  ************************103338.70647    -0.00003    -0.00000     0.00000
  n-local   256.05585   256.51757   267.84404     2.79074     0.03287    -0.10235
  augment  -171.98539  -171.98536  -175.00577     0.00003    -0.00000     0.00000
  Kinetic  1058.02752  1062.65289  1066.69950   -22.80013     0.06828     0.67408
  Fock        0.00000     0.00000     0.00000     0.00000     0.00000     0.00000
  vdW        -1.67935    -1.67935    -1.39603     0.00000     0.00000     0.00000
  Total      -4.54340    -4.54340    -3.82790     0.00000     0.00000     0.00000
  in kB     -13.33877   -13.33877   -11.23817     0.00000     0.00000     0.00000

 VOLUME and BASIS-vectors are now :
  energy-cutoff  :      317.13
  volume of cell :      545.73
      direct lattice vectors                 reciprocal lattice vectors
     3.550076222  0.000000000  0.000000000     0.281684093  0.162630387  0.000000000
    -1.775038111  3.074456194  0.000000000     0.000000000  0.325260774  0.000000000
     0.000000000  0.000000000 50.000000000     0.000000000  0.000000000  0.020000000

  length of vectors
     3.550076222  3.550076222 50.000000000     0.325260774  0.325260774  0.020000000

 FORCES acting on ions
    electron-ion (+dipol)            ewald-force                    non-local-force                 convergence-correction
   -.780E-07 0.566E-07 0.217E+04   0.863E-11 -.500E-11 -.217E+04   0.104E-16 0.694E-17 0.546E-02   -.580E-11 0.333E-11 0.209E-05
   0.781E-07 -.565E-07 -.217E+04   -.862E-11 0.506E-11 0.217E+04   0.694E-17 0.208E-16 -.546E-02   0.579E-11 -.333E-11 -.209E-05
   -.179E-06 0.112E-06 0.170E+03   -.439E-11 0.255E-11 -.165E+03   -.260E-17 -.260E-17 -.520E+01   0.309E-12 -.173E-12 -.177E-05
   -.200E-06 0.264E-07 0.168E+04   -.432E-11 0.251E-11 -.169E+04   0.781E-17 -.191E-16 0.525E+01   0.362E-12 -.209E-12 -.761E-06
   0.200E-06 -.264E-07 -.168E+04   0.430E-11 -.252E-11 0.169E+04   -.338E-16 0.121E-16 -.525E+01   -.361E-12 0.210E-12 0.761E-06
   0.179E-06 -.112E-06 -.170E+03   0.439E-11 -.257E-11 0.165E+03   0.347E-17 0.260E-17 0.520E+01   -.310E-12 0.173E-12 0.177E-05
   0.116E-09 0.203E-09 0.686E-10   -.109E-13 0.321E-13 0.568E-13   -.781E-17 0.208E-16 -.888E-15   -.741E-14 0.871E-14 0.256E-11

 POSITION                                       TOTAL-FORCE (eV/Angst)
     -0.00000      1.02482     21.47000         0.000000     -0.000000      0.022667
      1.77504      2.04964     28.53000         0.000000      0.000000     -0.022667
      1.77504      2.04964     23.28196        -0.000000      0.000000     -0.082879
      1.77504      2.04964     19.65804        -0.000000      0.000000      0.052449
     -0.00000      1.02482     30.34196         0.000000     -0.000000     -0.052449
     -0.00000      1.02482     26.71804         0.000000      0.000000      0.082879
    total drift:                                0.000000      0.000000      0.000000

  FREE ENERGIE OF THE ION-ELECTRON SYSTEM (eV)
  free  energy   TOTEN  =       -44.66472984 eV

  energy  without entropy=      -44.66472984  energy(sigma->0) =      -44.66472984

 Linear response reoptimize wavefunctions
 Linear response G [H, r] |phi>, progress :
  Direction:   1

[...]

  free energy    TOTEN  =      -253.23928220 eV

[...]

 Linear response G [H, r] |phi>, progress :
  Direction:   2

[...]

 Linear response G [H, r] |phi>, progress :
  Direction:   3

[...]

  free energy    TOTEN  =      -283.49960655 eV

[...]

 Linear response to external field (no local field effect), progress :
  Direction:   1
  LATTYP: Found a hexagonal cell.
 ALAT       =     3.5500762221
 C/A-ratio  =    14.0842046402

[...]

The dynamic configuration has the point symmetry C_2 .

[...]

 Free energy of the ion-electron system (eV)
  -Hartree energ DENC   =         0.00000000
  -V(xc)+E(xc)   XCENC  =         0.00000000
  PAW double counting   =         0.00000000        0.00000000
  entropy T*S    EENTRO =         0.00000000
  eigenvalues    EBANDS =        -5.00468257
  free energy    TOTEN  =        -5.00468257 eV

  energy without entropy =       -5.00468257

[...]

 change of polarisation eV/A/(eV/A) component  1 :    15.588    -0.487    -0.125
 dielectric tensor                  component  1 :     6.169    -0.161    -0.041

[...]

The dynamic configuration has the point symmetry C_1h.

[...]

 Linear response to external field (no local field effect), progress :
  Direction:   3
  LATTYP: Found a hexagonal cell.
 ALAT       =     3.5500762221
 C/A-ratio  =    14.0842046402

[...]

The dynamic configuration has the point symmetry C_1h.
 The point group associated with its full space group is C_3v.

[...]

 HEAD OF MICROSCOPIC STATIC DIELECTRIC TENSOR (INDEPENDENT PARTICLE, excluding Hartree and local field effects)
           6.169199     0.000000     0.000000
           0.000000     6.169199    -0.000000
           0.000000     0.000000     3.876547

 Linear response to external field, progress :
  Direction:   1
  LATTYP: Found a hexagonal cell.
 ALAT       =     3.5500762221
 C/A-ratio  =    14.0842046402

[...]

The dynamic configuration has the point symmetry C_2 .

[...]

  Parameters of vdW forcefield:
            C6ts              R0ts           ALPHAts        RELVOL
            (au)              (au)            (au)
   W         919.802          4.138         73.990          1.042
   W         919.802          4.138         73.990          1.042
   Te        408.946          4.237         38.260          1.016
   Te        401.502          4.224         37.911          1.007
   Te        401.502          4.224         37.911          1.007
   Te        408.946          4.237         38.260          1.016
  Edisp (eV):   -1.67794

[...]

 PIEZOELECTRIC TENSOR FIELD DIRECTION 1  (e Angst)
    -0.00487  0.00000  0.00000           ( -0.00025  0.00000  0.00000)
     0.00000  0.00718  0.00043           (  0.00000  0.00009  0.00001)
     0.00000  0.00035 -0.00047           (  0.00000  0.00001 -0.00007)

 PIEZOELECTRIC TENSOR FIELD DIRECTION 1  (C/m^2)
    -0.00014  0.00000  0.00000
     0.00000  0.00021  0.00001
     0.00000  0.00001 -0.00001

      POSITION         DIRECTION 1           BORN EFFECTIVE CHARGE    (rigid.aug.   ionic)
     -0.00000      1.02482     21.47000    -2.54467 -0.00051  0.00003 (  1.94634 14.00000)
      1.77504      2.04964     28.53000    -2.54467  0.00051 -0.00003 (  1.94634 14.00000)
      1.77504      2.04964     23.28196     1.28328 -0.00183  0.00022 (  1.18308  6.00000)
      1.77504      2.04964     19.65804     1.27999 -0.00169 -0.00010 (  1.18266  6.00000)
     -0.00000      1.02482     30.34196     1.27999  0.00169  0.00010 (  1.18266  6.00000)
     -0.00000      1.02482     26.71804     1.28328  0.00183 -0.00022 (  1.18308  6.00000)
    total drift (improves with k-points):   0.03719  0.00000  0.00000

[...]

The dynamic configuration has the point symmetry C_1h.

[...]

 Linear response to external field, progress :
  Direction:   3
  LATTYP: Found a hexagonal cell.
 ALAT       =     3.5500762221
 C/A-ratio  =    14.0842046402

[...]

The dynamic configuration has the point symmetry C_1h.
 The point group associated with its full space group is C_3v.

[...]

----------------------------------------- Iteration    3(  22)  ---------------------------------------

 Broyden mixing:
  rms(total) = 0.88685E-06    rms(broyden)= 0.88679E-06
  rms(prec ) = 0.10049E-05
  weight for this iteration     100.00

 eigenvalues of (default mixing * dielectric matrix)
  average eigenvalue GAMMA=   2.4019
  8.8857  7.4518  5.1463  4.0505  2.8818  2.8818  2.1182  2.1182  1.6335  1.6335
  1.5261  1.0683  0.9685  0.9685  0.9525  0.9284  0.8068  0.6199  0.6119  0.7855

 Free energy of the ion-electron system (eV)
  -Hartree energ DENC   =        -0.42788249
  -V(xc)+E(xc)   XCENC  =         0.00675802
  PAW double counting   =         0.01032412       -0.01019374
  entropy T*S    EENTRO =         0.00000000
  eigenvalues    EBANDS =        -0.09786284
  free energy    TOTEN  =        -0.51885694 eV

  energy without entropy =       -0.51885694

------------------------ aborting loop because EDIFF is reached ----------------------------------------

 change of polarisation eV/A/(eV/A) component  3 :    -0.004     0.003     1.017
 dielectric tensor                  component  3 :    -0.001     0.001     1.337

[...]

  Hirshfeld charges:
            ion         q(e)
      1     W           0.216
      2     W           0.216
      3     Te         -0.107
      4     Te         -0.108
      5     Te         -0.108
      6     Te         -0.108

  Tkatchenko/Scheffler method for vdW energy calculation

  Parameters of vdW forcefield:
            C6ts              R0ts           ALPHAts        RELVOL
            (au)              (au)            (au)
   W         919.802          4.138         73.990          1.042
   W         919.802          4.138         73.990          1.042
   Te        408.946          4.237         38.260          1.016
   Te        401.502          4.224         37.911          1.007
   Te        401.501          4.224         37.911          1.007
   Te        408.947          4.237         38.260          1.016
  Edisp (eV):   -1.67794

 PIEZOELECTRIC TENSOR FIELD DIRECTION 3  (e Angst)
     0.00200 -0.00000  0.00000           ( -0.00000 -0.00000  0.00000)
    -0.00000  0.00200  0.00000           (  0.00000 -0.00000  0.00000)
     0.00000  0.00000 -0.00126           (  0.00000 -0.00000  0.00000)

 PIEZOELECTRIC TENSOR FIELD DIRECTION 3  (C/m^2)
     0.00006 -0.00000  0.00000
    -0.00000  0.00006  0.00000
     0.00000  0.00000 -0.00004

      POSITION         DIRECTION 3           BORN EFFECTIVE CHARGE    (rigid.aug.   ionic)
     -0.00000      1.02482     21.47000     0.00000 -0.00000 -5.45251 (  1.94634 14.00000)
      1.77504      2.04964     28.53000     0.00000  0.00000 -5.45438 (  1.94634 14.00000)
      1.77504      2.04964     23.28196     0.00000  0.00000  0.09206 (  1.18308  6.00000)
      1.77504      2.04964     19.65804     0.00000 -0.00000  0.30946 (  1.18266  6.00000)
     -0.00000      1.02482     30.34196    -0.00000  0.00000  0.30495 (  1.18266  6.00000)
     -0.00000      1.02482     26.71804    -0.00000 -0.00000  0.08798 (  1.18308  6.00000)
    total drift (improves with k-points):   0.00000 -0.00000-10.11244

[...]

 MACROSCOPIC STATIC DIELECTRIC TENSOR (including local field effects in DFT)
           5.975719     0.000000     0.000000
           0.000000     5.975719     0.000000
           0.000000    -0.000000     1.337336

  LATTYP: Found a hexagonal cell.
 ALAT       =     3.5500762221
 C/A-ratio  =    14.0842046402

  Lattice vectors:

 A1 = (   3.5500762221,   0.0000000000,   0.0000000000)
 A2 = (  -1.7750381110,   3.0744561937,   0.0000000000)
 A3 = (   0.0000000000,   0.0000000000,  50.0000000000)

Analysis of symmetry for initial positions (statically):
 Subroutine PRICEL returns:
 Original cell was already a primitive cell.

[...]

The static configuration has the point symmetry C_2h.
 The point group associated with its full space group is D_3d.

Analysis of symmetry for dynamics (positions and initial velocities):
 Subroutine PRICEL returns:
 Original cell was already a primitive cell.

 Routine SETGRP: Setting up the symmetry group for a
 hexagonal supercell.

 Subroutine GETGRP returns: Found 12 space group operations
 (whereof  4 operations were pure point group operations)
 out of a pool of 24 trial point group operations.

The dynamic configuration has the point symmetry C_2h.
 The point group associated with its full space group is D_3d.

 Subroutine INISYM returns: Found 12 space group operations
 (whereof  4 operations are pure point group operations),
 and found     1 'primitive' translations

 MACROSCOPIC STATIC DIELECTRIC TENSOR (including local field effects in DFT)
           5.975719     0.000000     0.000000
           0.000000     5.975719     0.000000
           0.000000    -0.000000     1.337336

 PIEZOELECTRIC TENSOR  for field in x, y, z        (e  Angst)
          XX          YY          ZZ          XY          YZ          ZX
  x    -0.00487     0.00718    -0.00047     0.00000     0.00035     0.00000
  y    -0.00664     0.01215     0.00515     0.00000     0.00031     0.00000
  z     0.00200     0.00200    -0.00126    -0.00000     0.00000     0.00000

 PIEZOELECTRIC TENSOR  for field in x, y, z        (C/m^2)
          XX          YY          ZZ          XY          YZ          ZX
  x     0.00000     0.00000     0.00000     0.00000     0.00000     0.00000
  y     0.00000     0.00000     0.00000     0.00000     0.00000     0.00000
  z     0.00000     0.00000     0.00000     0.00000     0.00000     0.00000

 BORN EFFECTIVE CHARGES (in e, cummulative output)
 ion    1
    1    -2.54467    -0.00051     0.00003
    2    -0.00000    -2.54556    -0.00007
    3     0.00000    -0.00000    -5.45251
 ion    2
    1    -2.54467     0.00051    -0.00003
    2     0.00000    -2.54379     0.00016
    3     0.00000     0.00000    -5.45438
 ion    3
    1     1.28328    -0.00183     0.00022
    2     0.00000     1.28373     0.00217
    3     0.00000     0.00000     0.09206
 ion    4
    1     1.27999    -0.00169    -0.00010
    2     0.00000     1.28040    -0.00139
    3     0.00000    -0.00000     0.30946
 ion    5
    1     1.27999     0.00169     0.00010
    2     0.00000     1.27958     0.00138
    3    -0.00000     0.00000     0.30495
 ion    6
    1     1.28328     0.00183    -0.00022
    2    -0.00000     1.28282    -0.00216
    3    -0.00000    -0.00000     0.08798

 writing wavefunctions
 BZINTS: Fermi energy: -1.079099; 52.000000 electrons
         Band energy:-979.142561;  BLOECHL correction:  0.000000