 vasp.5.4.1 24Jun15 (build Apr 13 2016 13:07:19) complex

 executed on           IFC91_ompi date 2019.09.13  23:10:34

 INCAR:
 POTCAR:    PAW_PBE W_sv_GW 23Mar2010
 POTCAR:    PAW_PBE S_GW 19Mar2012

 POTCAR:    PAW_PBE W_sv_GW 23Mar2010
   VRHFIN =W: 5p6s5d

   TITEL  = PAW_PBE W_sv_GW 23Mar2010
   POMASS =  183.850; ZVAL   =   14.000    mass and valenz
   ENMAX  =  317.132; ENMIN  =  237.849 eV

 POTCAR:    PAW_PBE S_GW 19Mar2012
   VRHFIN =S : s2p4

   TITEL  = PAW_PBE S_GW 19Mar2012
   POMASS =   32.066; ZVAL   =    6.000    mass and valenz
   ENMAX  =  258.689; ENMIN  =  194.016 eV

  PAW_PBE W_sv_GW 23Mar2010             :
  PAW_PBE S_GW 19Mar2012                :

 POSCAR:  W  S
  positions in cartesian coordinates
 exchange correlation table for  LEXCH =        8
   RHO(1)=    0.500       N(1)  =     2000
   RHO(2)=  100.500       N(2)  =     4000

 ion  position               nearest neighbor table
   1  0.167  0.333  0.193-   7 2.42   7 2.42   7 2.42   8 2.42   8 2.42   8 2.42
   2  0.833  0.667  0.316-   9 2.42  10 2.42   9 2.42  10 2.42   9 2.42  10 2.42
   3  0.167  0.333  0.438-  12 2.42  12 2.42  12 2.42  11 2.42  11 2.42  11 2.42
   4  0.833  0.667  0.562-  13 2.42  13 2.42  13 2.42  14 2.42  14 2.42  14 2.42
   5  0.167  0.333  0.684-  15 2.42  16 2.42  15 2.42  16 2.42  15 2.42  16 2.42
   6  0.833  0.667  0.807-  18 2.42  18 2.42  18 2.42  17 2.42  17 2.42  17 2.42
   7  0.833  0.667  0.224-   1 2.42   1 2.42   1 2.42
   8  0.833  0.667  0.161-   1 2.42   1 2.42   1 2.42
   9  0.167  0.333  0.347-   2 2.42   2 2.42   2 2.42
  10  0.167  0.333  0.284-   2 2.42   2 2.42   2 2.42
  11  0.833  0.667  0.470-   3 2.42   3 2.42   3 2.42
  12  0.833  0.667  0.407-   3 2.42   3 2.42   3 2.42
  13  0.167  0.333  0.593-   4 2.42   4 2.42   4 2.42
  14  0.167  0.333  0.530-   4 2.42   4 2.42   4 2.42
  15  0.833  0.667  0.716-   5 2.42   5 2.42   5 2.42
  16  0.833  0.667  0.653-   5 2.42   5 2.42   5 2.42
  17  0.167  0.333  0.839-   6 2.42   6 2.42   6 2.42
  18  0.167  0.333  0.776-   6 2.42   6 2.42   6 2.42

  LATTYP: Found a hexagonal cell.
 ALAT       =     3.1859459497
 C/A-ratio  =    15.6939260082

  Lattice vectors:

 A1 = (   3.1859459497,   0.0000000000,   0.0000000000)
 A2 = (  -1.5929729748,   2.7591101275,   0.0000000000)
 A3 = (   0.0000000000,   0.0000000000,  50.0000000000)

Analysis of symmetry for initial positions (statically):
 Subroutine PRICEL returns:
 Original cell was already a primitive cell.

 Routine SETGRP: Setting up the symmetry group for a
 hexagonal supercell.

 Subroutine GETGRP returns: Found 12 space group operations
 (whereof  4 operations were pure point group operations)
 out of a pool of 24 trial point group operations.

The static configuration has the point symmetry C_2h.
 The point group associated with its full space group is D_3d.

Analysis of symmetry for dynamics (positions and initial velocities):
 Subroutine PRICEL returns:
 Original cell was already a primitive cell.

[...]

The dynamic configuration has the point symmetry C_2h.
 The point group associated with its full space group is D_3d.

 Subroutine INISYM returns: Found 12 space group operations
 (whereof  4 operations are pure point group operations),
 and found     1 'primitive' translations

 KPOINTS: KPOINTS created by Atomic Simulation Env

Automatic generation of k-mesh.
Space group operators:
 irot       det(A)        alpha          n_x          n_y          n_z        tau_x        tau_y        tau_z
    1     1.000000     0.000000     1.000000     0.000000     0.000000     0.000000     0.000000     0.000000
    2    -1.000000     0.000000     1.000000     0.000000     0.000000     0.000000     0.000000     0.000000
    3     1.000000   180.000000     1.000000     0.000000     0.000000     0.000000     0.000000     0.000000
    4    -1.000000   180.000000     1.000000     0.000000     0.000000     0.000000     0.000000     0.000000
    5     1.000000   120.000000     0.000000     0.000000    -1.000000     0.500000     0.500000     0.000000
    6    -1.000000   120.000000     0.000000     0.000000    -1.000000     0.500000     0.500000     0.000000
    7     1.000000   120.000000     0.000000     0.000000     1.000000     0.000000     0.500000     0.000000
    8    -1.000000   120.000000     0.000000     0.000000     1.000000     0.000000     0.500000     0.000000
    9     1.000000   180.000000     0.500000    -0.866025     0.000000     0.000000     0.500000     0.000000
   10    -1.000000   180.000000     0.500000    -0.866025     0.000000     0.000000     0.500000     0.000000
   11     1.000000   180.000000    -0.500000    -0.866025     0.000000     0.500000     0.500000     0.000000
   12    -1.000000   180.000000    -0.500000    -0.866025     0.000000     0.500000     0.500000     0.000000

 Subroutine IBZKPT returns following result:

 Found     37 irreducible k-points:

 Following reciprocal coordinates:
            Coordinates               Weight
  0.000000  0.000000  0.000000      1.000000
  0.055556  0.000000  0.000000      6.000000
  0.111111  0.000000  0.000000      6.000000
  0.166667  0.000000  0.000000      6.000000
  0.222222  0.000000  0.000000      6.000000
  0.277778  0.000000  0.000000      6.000000
  0.333333  0.000000  0.000000      6.000000
  0.388889  0.000000  0.000000      6.000000
  0.444444  0.000000  0.000000      6.000000
  0.500000  0.000000  0.000000      3.000000
  0.055556  0.055556  0.000000      6.000000
  0.111111  0.055556  0.000000     12.000000
  0.166667  0.055556  0.000000     12.000000
  0.222222  0.055556  0.000000     12.000000
  0.277778  0.055556  0.000000     12.000000
  0.333333  0.055556  0.000000     12.000000
  0.388889  0.055556  0.000000     12.000000
  0.444444  0.055556  0.000000     12.000000
  0.111111  0.111111  0.000000      6.000000
  0.166667  0.111111  0.000000     12.000000
  0.222222  0.111111  0.000000     12.000000
  0.277778  0.111111  0.000000     12.000000
  0.333333  0.111111  0.000000     12.000000
  0.388889  0.111111  0.000000     12.000000
  0.444444  0.111111  0.000000      6.000000
  0.166667  0.166667  0.000000      6.000000
  0.222222  0.166667  0.000000     12.000000
  0.277778  0.166667  0.000000     12.000000
  0.333333  0.166667  0.000000     12.000000
  0.388889  0.166667  0.000000     12.000000
  0.222222  0.222222  0.000000      6.000000
  0.277778  0.222222  0.000000     12.000000
  0.333333  0.222222  0.000000     12.000000
  0.388889  0.222222  0.000000      6.000000
  0.277778  0.277778  0.000000      6.000000
  0.333333  0.277778  0.000000     12.000000
  0.333333  0.333333  0.000000      2.000000

 Following cartesian coordinates:
            Coordinates               Weight
  0.000000  0.000000  0.000000      1.000000
  0.017438  0.010068  0.000000      6.000000
  0.034875  0.020135  0.000000      6.000000
  0.052313  0.030203  0.000000      6.000000
  0.069751  0.040271  0.000000      6.000000
  0.087188  0.050338  0.000000      6.000000
  0.104626  0.060406  0.000000      6.000000
  0.122064  0.070474  0.000000      6.000000
  0.139502  0.080541  0.000000      6.000000
  0.156939  0.090609  0.000000      3.000000
  0.017438  0.030203  0.000000      6.000000
  0.034875  0.040271  0.000000     12.000000
  0.052313  0.050338  0.000000     12.000000
  0.069751  0.060406  0.000000     12.000000
  0.087188  0.070474  0.000000     12.000000
  0.104626  0.080541  0.000000     12.000000
  0.122064  0.090609  0.000000     12.000000
  0.139502  0.100677  0.000000     12.000000
  0.034875  0.060406  0.000000      6.000000
  0.052313  0.070474  0.000000     12.000000
  0.069751  0.080541  0.000000     12.000000
  0.087188  0.090609  0.000000     12.000000
  0.104626  0.100677  0.000000     12.000000
  0.122064  0.110744  0.000000     12.000000
  0.139502  0.120812  0.000000      6.000000
  0.052313  0.090609  0.000000      6.000000
  0.069751  0.100677  0.000000     12.000000
  0.087188  0.110744  0.000000     12.000000
  0.104626  0.120812  0.000000     12.000000
  0.122064  0.130880  0.000000     12.000000
  0.069751  0.120812  0.000000      6.000000
  0.087188  0.130880  0.000000     12.000000
  0.104626  0.140947  0.000000     12.000000
  0.122064  0.151015  0.000000      6.000000
  0.087188  0.151015  0.000000      6.000000
  0.104626  0.161083  0.000000     12.000000
  0.104626  0.181218  0.000000      2.000000

 TETIRR: Found    169 inequivalent tetrahedra from     1944

 Subroutine IBZKPT_HF returns following result:

 Found    324 k-points in 1st BZ
 the following    324 k-points will be used (e.g. in the exchange kernel)
 Following reciprocal coordinates:   # in IRBZ
  0.000000  0.000000  0.000000    0.00308642   1 t-inv F
  0.055556  0.000000  0.000000    0.00308642   2 t-inv F
  0.111111  0.000000  0.000000    0.00308642   3 t-inv F
  0.166667  0.000000  0.000000    0.00308642   4 t-inv F
  0.222222  0.000000  0.000000    0.00308642   5 t-inv F
  0.277778  0.000000  0.000000    0.00308642   6 t-inv F
  0.333333  0.000000  0.000000    0.00308642   7 t-inv F
  0.388889  0.000000  0.000000    0.00308642   8 t-inv F
  0.444444  0.000000  0.000000    0.00308642   9 t-inv F
  0.500000  0.000000  0.000000    0.00308642  10 t-inv F
  0.055556  0.055556  0.000000    0.00308642  11 t-inv F
  0.111111  0.055556  0.000000    0.00308642  12 t-inv F
  0.166667  0.055556  0.000000    0.00308642  13 t-inv F
  0.222222  0.055556  0.000000    0.00308642  14 t-inv F
  0.277778  0.055556  0.000000    0.00308642  15 t-inv F
  0.333333  0.055556  0.000000    0.00308642  16 t-inv F
  0.388889  0.055556  0.000000    0.00308642  17 t-inv F
  0.444444  0.055556  0.000000    0.00308642  18 t-inv F
  0.111111  0.111111  0.000000    0.00308642  19 t-inv F
  0.166667  0.111111  0.000000    0.00308642  20 t-inv F
  0.222222  0.111111  0.000000    0.00308642  21 t-inv F
  0.277778  0.111111  0.000000    0.00308642  22 t-inv F
  0.333333  0.111111  0.000000    0.00308642  23 t-inv F
  0.388889  0.111111  0.000000    0.00308642  24 t-inv F
  0.444444  0.111111  0.000000    0.00308642  25 t-inv F
  0.166667  0.166667  0.000000    0.00308642  26 t-inv F
  0.222222  0.166667  0.000000    0.00308642  27 t-inv F
  0.277778  0.166667  0.000000    0.00308642  28 t-inv F
  0.333333  0.166667  0.000000    0.00308642  29 t-inv F
  0.388889  0.166667  0.000000    0.00308642  30 t-inv F
  0.222222  0.222222  0.000000    0.00308642  31 t-inv F
  0.277778  0.222222  0.000000    0.00308642  32 t-inv F
  0.333333  0.222222  0.000000    0.00308642  33 t-inv F
  0.388889  0.222222  0.000000    0.00308642  34 t-inv F
  0.277778  0.277778  0.000000    0.00308642  35 t-inv F
  0.333333  0.277778  0.000000    0.00308642  36 t-inv F
  0.333333  0.333333  0.000000    0.00308642  37 t-inv F
 -0.055556 -0.000000 -0.000000    0.00308642   2 t-inv F
  0.055556 -0.055556 -0.000000    0.00308642   2 t-inv F
 -0.055556  0.055556  0.000000    0.00308642   2 t-inv F
  0.000000 -0.055556  0.000000    0.00308642   2 t-inv F
 -0.000000  0.055556 -0.000000    0.00308642   2 t-inv F
 -0.111111 -0.000000 -0.000000    0.00308642   3 t-inv F
  0.111111 -0.111111 -0.000000    0.00308642   3 t-inv F
[...]
     -0.00000      0.91970     38.80220         0.000000      0.000000      0.126350
    total drift:                               -0.000000      0.000000      0.000000

  FREE ENERGIE OF THE ION-ELECTRON SYSTEM (eV)
  free  energy   TOTEN  =      -159.00593470 eV

  energy  without entropy=     -159.00593470  energy(sigma->0) =     -159.00593470

 Linear response reoptimize wavefunctions
 Linear response G [H, r] |phi>, progress :
  Direction:   1

[...]

  free energy    TOTEN  =      -685.72416762 eV

[...]

 Linear response G [H, r] |phi>, progress :
  Direction:   2

[...]

 Linear response G [H, r] |phi>, progress :
  Direction:   3

[...]

  free energy    TOTEN  =      -680.29899125 eV

[...]

 Linear response to external field (no local field effect), progress :
  Direction:   1
  LATTYP: Found a hexagonal cell.
 ALAT       =     3.1859459497
 C/A-ratio  =    15.6939260082

[...]

The dynamic configuration has the point symmetry C_2 .

[...]

 Free energy of the ion-electron system (eV)
  -Hartree energ DENC   =         0.00000000
  -V(xc)+E(xc)   XCENC  =         0.00000000
  PAW double counting   =         0.00000000        0.00000000
  entropy T*S    EENTRO =         0.00000000
  eigenvalues    EBANDS =       -10.90806700
  free energy    TOTEN  =       -10.90806700 eV

  energy without entropy =      -10.90806700

[...]

 change of polarisation eV/A/(eV/A) component  1 :    25.386    -3.303    -0.051
 dielectric tensor                  component  1 :    11.452    -1.360    -0.021

[...]

The dynamic configuration has the point symmetry C_1h.

[...]

 Linear response to external field (no local field effect), progress :
  Direction:   3
  LATTYP: Found a hexagonal cell.
 ALAT       =     3.1859459497
 C/A-ratio  =    15.6939260082

[...]

The dynamic configuration has the point symmetry C_1h.
 The point group associated with its full space group is C_3v.

[...]

 HEAD OF MICROSCOPIC STATIC DIELECTRIC TENSOR (INDEPENDENT PARTICLE, excluding Hartree and local field effects)
          11.129034     0.000000     0.000000
           0.000000    11.129034     0.000000
           0.000000     0.000000     6.959029

 Linear response to external field, progress :
  Direction:   1
  LATTYP: Found a hexagonal cell.
 ALAT       =     3.1859459497
 C/A-ratio  =    15.6939260082

[...]

The dynamic configuration has the point symmetry C_2 .

[...]

  Parameters of vdW forcefield:
            C6ts              R0ts           ALPHAts        RELVOL
            (au)              (au)            (au)
   W         873.751          4.102         72.114          1.015
   W         882.127          4.109         72.459          1.020
   W         882.172          4.109         72.461          1.020
   W         882.172          4.109         72.461          1.020
   W         882.127          4.109         72.459          1.020
   W         873.751          4.102         72.114          1.015
   S         135.468          3.862         19.707          1.005
   S         132.621          3.848         19.499          0.995
   S         135.473          3.862         19.707          1.005
   S         135.466          3.862         19.707          1.005
   S         135.472          3.862         19.707          1.005
   S         135.472          3.862         19.707          1.005
   S         135.472          3.862         19.707          1.005
   S         135.472          3.862         19.707          1.005
   S         135.466          3.862         19.707          1.005
   S         135.473          3.862         19.707          1.005
   S         132.621          3.848         19.499          0.995
   S         135.468          3.862         19.707          1.005
  Edisp (eV):   -5.09623

[...]

 PIEZOELECTRIC TENSOR FIELD DIRECTION 1  (e Angst)
    -0.00713  0.00000  0.00000           ( -0.00041  0.00000  0.00000)
     0.00000  0.01024  0.00018           (  0.00000  0.00026  0.00000)
     0.00000  0.00013 -0.00162           (  0.00000  0.00000 -0.00009)

 PIEZOELECTRIC TENSOR FIELD DIRECTION 1  (C/m^2)
    -0.00026  0.00000  0.00000
     0.00000  0.00037  0.00001
     0.00000  0.00000 -0.00006

      POSITION         DIRECTION 1           BORN EFFECTIVE CHARGE    (rigid.aug.   ionic)
     -0.00000      0.91970      9.62500    -0.45028 -0.00036  0.00004 (  1.96478 14.00000)
      1.59297      1.83941     15.77500    -0.45585  0.00028 -0.00000 (  1.96472 14.00000)
     -0.00000      0.91970     21.92500    -0.45517 -0.00029  0.00000 (  1.96472 14.00000)
      1.59297      1.83941     28.07500    -0.45517  0.00029 -0.00000 (  1.96472 14.00000)
     -0.00000      0.91970     34.22500    -0.45585 -0.00028  0.00000 (  1.96472 14.00000)
      1.59297      1.83941     40.37500    -0.45028  0.00036 -0.00004 (  1.96478 14.00000)
      1.59297      1.83941     11.19780     0.24057 -0.00141  0.00010 (  0.65943  6.00000)
      1.59297      1.83941      8.05220     0.25904 -0.00138 -0.00005 (  0.65870  6.00000)
     -0.00000      0.91970     17.34780     0.25284  0.00145  0.00011 (  0.65946  6.00000)
     -0.00000      0.91970     14.20220     0.25321  0.00146 -0.00011 (  0.65945  6.00000)
      1.59297      1.83941     23.49780     0.25278 -0.00145  0.00011 (  0.65946  6.00000)
      1.59297      1.83941     20.35220     0.25276 -0.00146 -0.00011 (  0.65946  6.00000)
     -0.00000      0.91970     29.64780     0.25276  0.00146  0.00011 (  0.65946  6.00000)
     -0.00000      0.91970     26.50220     0.25278  0.00145 -0.00011 (  0.65946  6.00000)
      1.59297      1.83941     35.79780     0.25321 -0.00146  0.00011 (  0.65945  6.00000)
      1.59297      1.83941     32.65220     0.25284 -0.00145 -0.00011 (  0.65946  6.00000)
     -0.00000      0.91970     41.94780     0.25904  0.00138  0.00005 (  0.65870  6.00000)
     -0.00000      0.91970     38.80220     0.24057  0.00141 -0.00010 (  0.65943  6.00000)
    total drift (improves with k-points):   0.29982  0.00000  0.00000

[...]

The dynamic configuration has the point symmetry C_1h.

[...]

 Linear response to external field, progress :
  Direction:   3
  LATTYP: Found a hexagonal cell.
 ALAT       =     3.1859459497
 C/A-ratio  =    15.6939260082

[...]

The dynamic configuration has the point symmetry C_1h.
 The point group associated with its full space group is C_3v.

[...]

----------------------------------------- Iteration    3(  22)  ---------------------------------------

 Broyden mixing:
  rms(total) = 0.91939E-06    rms(broyden)= 0.91907E-06
  rms(prec ) = 0.95068E-06
  weight for this iteration     100.00

 eigenvalues of (default mixing * dielectric matrix)
  average eigenvalue GAMMA=   2.1783
  9.0362  5.5040  4.4591  3.2063  3.2063  2.2458  2.2458  1.7778  1.7778  1.5382
  1.0554  1.0554  0.9683  0.9683  0.9018  0.8079  0.6761  0.7265  0.7025  0.7069

 Free energy of the ion-electron system (eV)
  -Hartree energ DENC   =        -1.27160752
  -V(xc)+E(xc)   XCENC  =         0.02882743
  PAW double counting   =         0.08994593       -0.09026680
  entropy T*S    EENTRO =         0.00000000
  eigenvalues    EBANDS =        -0.76540553
  free energy    TOTEN  =        -2.00850648 eV

  energy without entropy =       -2.00850648

------------------------ aborting loop because EDIFF is reached ----------------------------------------

 change of polarisation eV/A/(eV/A) component  3 :    -0.009     0.003     3.913
 dielectric tensor                  component  3 :    -0.004     0.001     2.611

[...]

  Hirshfeld charges:
            ion         q(e)
      1     W           0.351
      2     W           0.350
      3     W           0.350
      4     W           0.350
      5     W           0.350
      6     W           0.351
      7     S          -0.175
      8     S          -0.176
      9     S          -0.175
     10     S          -0.175
     11     S          -0.175
     12     S          -0.175
     13     S          -0.175
     14     S          -0.175
     15     S          -0.175
     16     S          -0.175
     17     S          -0.176
     18     S          -0.175

  Tkatchenko/Scheffler method for vdW energy calculation

  Parameters of vdW forcefield:
            C6ts              R0ts           ALPHAts        RELVOL
            (au)              (au)            (au)
   W         873.751          4.102         72.114          1.015
   W         882.127          4.109         72.459          1.020
   W         882.172          4.109         72.461          1.020
   W         882.172          4.109         72.461          1.020
   W         882.127          4.109         72.459          1.020
   W         873.751          4.102         72.114          1.015
   S         135.468          3.862         19.707          1.005
   S         132.621          3.848         19.499          0.995
   S         135.473          3.862         19.707          1.005
   S         135.466          3.862         19.707          1.005
   S         135.472          3.862         19.707          1.005
   S         135.472          3.862         19.707          1.005
   S         135.472          3.862         19.707          1.005
   S         135.472          3.862         19.707          1.005
   S         135.466          3.862         19.707          1.005
   S         135.473          3.862         19.707          1.005
   S         132.621          3.848         19.499          0.995
   S         135.468          3.862         19.707          1.005
  Edisp (eV):   -5.09623

 PIEZOELECTRIC TENSOR FIELD DIRECTION 3  (e Angst)
     0.07294 -0.00000  0.00000           ( -0.00000 -0.00000  0.00000)
     0.00000  0.07294 -0.00000           (  0.00000 -0.00000  0.00000)
     0.00000 -0.00000  0.06133           (  0.00000 -0.00000  0.00000)

 PIEZOELECTRIC TENSOR FIELD DIRECTION 3  (C/m^2)
     0.00266 -0.00000  0.00000
     0.00000  0.00266 -0.00000
     0.00000 -0.00000  0.00224

      POSITION         DIRECTION 3           BORN EFFECTIVE CHARGE    (rigid.aug.   ionic)
     -0.00000      0.91970      9.62500    -0.00000  0.00000-42.38488 (  1.96478 14.00000)
      1.59297      1.83941     15.77500    -0.00000 -0.00000-16.29933 (  1.96472 14.00000)
     -0.00000      0.91970     21.92500    -0.00000  0.00000 -3.34929 (  1.96472 14.00000)
      1.59297      1.83941     28.07500    -0.00000  0.00000 -3.36167 (  1.96472 14.00000)
     -0.00000      0.91970     34.22500     0.00000 -0.00000-16.31459 (  1.96472 14.00000)
      1.59297      1.83941     40.37500     0.00000 -0.00000-42.40862 (  1.96478 14.00000)
      1.59297      1.83941     11.19780     0.00000  0.00000 -6.85400 (  0.65943  6.00000)
      1.59297      1.83941      8.05220    -0.00000 -0.00000  3.86061 (  0.65870  6.00000)
     -0.00000      0.91970     17.34780     0.00000 -0.00000 -1.88021 (  0.65946  6.00000)
     -0.00000      0.91970     14.20220     0.00000 -0.00000  2.67089 (  0.65945  6.00000)
      1.59297      1.83941     23.49780    -0.00000  0.00000  0.18784 (  0.65946  6.00000)
      1.59297      1.83941     20.35220     0.00000  0.00000  1.26563 (  0.65946  6.00000)
     -0.00000      0.91970     29.64780     0.00000 -0.00000  1.05465 (  0.65946  6.00000)
     -0.00000      0.91970     26.50220    -0.00000 -0.00000  0.11510 (  0.65946  6.00000)
      1.59297      1.83941     35.79780    -0.00000  0.00000  3.00917 (  0.65945  6.00000)
      1.59297      1.83941     32.65220     0.00000  0.00000 -1.59065 (  0.65946  6.00000)
     -0.00000      0.91970     41.94780    -0.00000  0.00000  3.60172 (  0.65870  6.00000)
     -0.00000      0.91970     38.80220     0.00000 -0.00000 -7.14412 (  0.65943  6.00000)
    total drift (improves with k-points):   0.00000 -0.00000*********

[...]

 MACROSCOPIC STATIC DIELECTRIC TENSOR (including local field effects in DFT)
          10.619787     0.000000     0.000000
           0.000000    10.619787     0.000000
          -0.000000    -0.000000     2.611074

  LATTYP: Found a hexagonal cell.
 ALAT       =     3.1859459497
 C/A-ratio  =    15.6939260082

  Lattice vectors:

 A1 = (   3.1859459497,   0.0000000000,   0.0000000000)
 A2 = (  -1.5929729748,   2.7591101275,   0.0000000000)
 A3 = (   0.0000000000,   0.0000000000,  50.0000000000)

Analysis of symmetry for initial positions (statically):
 Subroutine PRICEL returns:
 Original cell was already a primitive cell.

[...]

The static configuration has the point symmetry C_2h.
 The point group associated with its full space group is D_3d.

Analysis of symmetry for dynamics (positions and initial velocities):
 Subroutine PRICEL returns:
 Original cell was already a primitive cell.

 Routine SETGRP: Setting up the symmetry group for a
 hexagonal supercell.

 Subroutine GETGRP returns: Found 12 space group operations
 (whereof  4 operations were pure point group operations)
 out of a pool of 24 trial point group operations.

The dynamic configuration has the point symmetry C_2h.
 The point group associated with its full space group is D_3d.

 Subroutine INISYM returns: Found 12 space group operations
 (whereof  4 operations are pure point group operations),
 and found     1 'primitive' translations

 MACROSCOPIC STATIC DIELECTRIC TENSOR (including local field effects in DFT)
          10.619787     0.000000     0.000000
           0.000000    10.619787     0.000000
          -0.000000    -0.000000     2.611074

 PIEZOELECTRIC TENSOR  for field in x, y, z        (e  Angst)
          XX          YY          ZZ          XY          YZ          ZX
  x    -0.00713     0.01024    -0.00162     0.00000     0.00013     0.00000
  y    -0.01430     0.02311     0.00197     0.00000     0.00005     0.00000
  z     0.07294     0.07294     0.06133     0.00000    -0.00000     0.00000

 PIEZOELECTRIC TENSOR  for field in x, y, z        (C/m^2)
          XX          YY          ZZ          XY          YZ          ZX
  x     0.00000     0.00000     0.00000     0.00000     0.00000     0.00000
  y     0.00000     0.00000     0.00000     0.00000     0.00000     0.00000
  z     0.00000     0.00000     0.00000     0.00000     0.00000     0.00000

 BORN EFFECTIVE CHARGES (in e, cummulative output)
 ion    1
    1    -0.45028    -0.00036     0.00004
    2    -0.00000    -0.45106     0.00002
    3    -0.00000     0.00000   -42.38488
 ion    2
    1    -0.45585     0.00028    -0.00000
    2     0.00000    -0.45499     0.00001
    3    -0.00000    -0.00000   -16.29933
 ion    3
    1    -0.45517    -0.00029     0.00000
    2     0.00000    -0.45601    -0.00001
    3    -0.00000     0.00000    -3.34929
 ion    4
    1    -0.45517     0.00029    -0.00000
    2     0.00000    -0.45430     0.00001
    3    -0.00000     0.00000    -3.36167
 ion    5
    1    -0.45585    -0.00028     0.00000
    2    -0.00000    -0.45668    -0.00001
    3     0.00000    -0.00000   -16.31459
 ion    6
    1    -0.45028     0.00036    -0.00004
    2    -0.00000    -0.44947    -0.00000
    3     0.00000    -0.00000   -42.40862
 ion    7
    1     0.24057    -0.00141     0.00010
    2     0.00000     0.24102     0.00076
    3     0.00000     0.00000    -6.85400
 ion    8
    1     0.25904    -0.00138    -0.00005
    2     0.00000     0.25946    -0.00050
    3    -0.00000    -0.00000     3.86061
 ion    9
    1     0.25284     0.00145     0.00011
    2    -0.00000     0.25238     0.00075
    3     0.00000    -0.00000    -1.88021
 ion   10
    1     0.25321     0.00146    -0.00011
    2    -0.00000     0.25277    -0.00075
    3     0.00000    -0.00000     2.67089
 ion   11
    1     0.25278    -0.00145     0.00011
    2     0.00000     0.25323     0.00076
    3    -0.00000     0.00000     0.18784
 ion   12
    1     0.25276    -0.00146    -0.00011
    2     0.00000     0.25325    -0.00076
    3     0.00000     0.00000     1.26563
 ion   13
    1     0.25276     0.00146     0.00011
    2     0.00000     0.25228     0.00076
    3     0.00000    -0.00000     1.05465
 ion   14
    1     0.25278     0.00145    -0.00011
    2     0.00000     0.25233    -0.00076
    3    -0.00000    -0.00000     0.11510
 ion   15
    1     0.25321    -0.00146     0.00011
    2    -0.00000     0.25367     0.00075
    3    -0.00000     0.00000     3.00917
 ion   16
    1     0.25284    -0.00145    -0.00011
    2     0.00000     0.25332    -0.00075
    3     0.00000     0.00000    -1.59065
 ion   17
    1     0.25904     0.00138     0.00005
    2    -0.00000     0.25862     0.00050
    3    -0.00000     0.00000     3.60172
 ion   18
    1     0.24057     0.00141    -0.00010
    2     0.00000     0.24014    -0.00075
    3     0.00000    -0.00000    -7.14412

 writing wavefunctions
 BZINTS: Fermi energy:  4.453275;156.000000 electrons
         Band energy:***********;  BLOECHL correction:  0.000000