 vasp.5.4.1 24Jun15 (build Apr 13 2016 13:07:19) complex

 executed on           IFC91_ompi date 2019.09.13  22:43:13

 INCAR:
 POTCAR:    PAW_PBE W_sv_GW 23Mar2010
 POTCAR:    PAW_PBE S_GW 19Mar2012

 POTCAR:    PAW_PBE W_sv_GW 23Mar2010
   VRHFIN =W: 5p6s5d

   TITEL  = PAW_PBE W_sv_GW 23Mar2010
   POMASS =  183.850; ZVAL   =   14.000    mass and valenz
   ENMAX  =  317.132; ENMIN  =  237.849 eV

 POTCAR:    PAW_PBE S_GW 19Mar2012
   VRHFIN =S : s2p4

   TITEL  = PAW_PBE S_GW 19Mar2012
   POMASS =   32.066; ZVAL   =    6.000    mass and valenz
   ENMAX  =  258.689; ENMIN  =  194.016 eV

  PAW_PBE W_sv_GW 23Mar2010             :
  PAW_PBE S_GW 19Mar2012                :

 POSCAR:  W  S
  positions in cartesian coordinates
 exchange correlation table for  LEXCH =        8
   RHO(1)=    0.500       N(1)  =     2000
   RHO(2)=  100.500       N(2)  =     4000

 ion  position               nearest neighbor table
   1  0.167  0.333  0.316-   5 2.42   6 2.42   5 2.42   6 2.42   5 2.42   6 2.42
   2  0.833  0.667  0.438-   8 2.42   8 2.42   8 2.42   7 2.42   7 2.42   7 2.42
   3  0.167  0.333  0.562-   9 2.42   9 2.42   9 2.42  10 2.42  10 2.42  10 2.42
   4  0.833  0.667  0.684-  11 2.42  12 2.42  11 2.42  12 2.42  11 2.42  12 2.42
   5  0.833  0.667  0.347-   1 2.42   1 2.42   1 2.42
   6  0.833  0.667  0.284-   1 2.42   1 2.42   1 2.42
   7  0.167  0.333  0.470-   2 2.42   2 2.42   2 2.42
   8  0.167  0.333  0.407-   2 2.42   2 2.42   2 2.42
   9  0.833  0.667  0.593-   3 2.42   3 2.42   3 2.42
  10  0.833  0.667  0.530-   3 2.42   3 2.42   3 2.42
  11  0.167  0.333  0.716-   4 2.42   4 2.42   4 2.42
  12  0.167  0.333  0.653-   4 2.42   4 2.42   4 2.42

  LATTYP: Found a hexagonal cell.
 ALAT       =     3.1859459497
 C/A-ratio  =    15.6939260082

  Lattice vectors:

 A1 = (   3.1859459497,   0.0000000000,   0.0000000000)
 A2 = (  -1.5929729748,   2.7591101275,   0.0000000000)
 A3 = (   0.0000000000,   0.0000000000,  50.0000000000)

Analysis of symmetry for initial positions (statically):
 Subroutine PRICEL returns:
 Original cell was already a primitive cell.

 Routine SETGRP: Setting up the symmetry group for a
 hexagonal supercell.

 Subroutine GETGRP returns: Found 12 space group operations
 (whereof  4 operations were pure point group operations)
 out of a pool of 24 trial point group operations.

The static configuration has the point symmetry C_2h.
 The point group associated with its full space group is D_3d.

Analysis of symmetry for dynamics (positions and initial velocities):
 Subroutine PRICEL returns:
 Original cell was already a primitive cell.

[...]

The dynamic configuration has the point symmetry C_2h.
 The point group associated with its full space group is D_3d.

 Subroutine INISYM returns: Found 12 space group operations
 (whereof  4 operations are pure point group operations),
 and found     1 'primitive' translations

 KPOINTS: KPOINTS created by Atomic Simulation Env

Automatic generation of k-mesh.
Space group operators:
 irot       det(A)        alpha          n_x          n_y          n_z        tau_x        tau_y        tau_z
    1     1.000000     0.000000     1.000000     0.000000     0.000000     0.000000     0.000000     0.000000
    2    -1.000000     0.000000     1.000000     0.000000     0.000000     0.000000     0.000000     0.000000
    3     1.000000   180.000000     1.000000     0.000000     0.000000     0.000000     0.000000     0.000000
    4    -1.000000   180.000000     1.000000     0.000000     0.000000     0.000000     0.000000     0.000000
    5     1.000000   120.000000     0.000000     0.000000    -1.000000     0.500000     0.500000     0.000000
    6    -1.000000   120.000000     0.000000     0.000000    -1.000000     0.500000     0.500000     0.000000
    7     1.000000   120.000000     0.000000     0.000000     1.000000     0.000000     0.500000     0.000000
    8    -1.000000   120.000000     0.000000     0.000000     1.000000     0.000000     0.500000     0.000000
    9     1.000000   180.000000     0.500000    -0.866025     0.000000     0.000000     0.500000     0.000000
   10    -1.000000   180.000000     0.500000    -0.866025     0.000000     0.000000     0.500000     0.000000
   11     1.000000   180.000000    -0.500000    -0.866025     0.000000     0.500000     0.500000     0.000000
   12    -1.000000   180.000000    -0.500000    -0.866025     0.000000     0.500000     0.500000     0.000000

 Subroutine IBZKPT returns following result:

 Found     37 irreducible k-points:

 Following reciprocal coordinates:
            Coordinates               Weight
  0.000000  0.000000  0.000000      1.000000
  0.055556  0.000000  0.000000      6.000000
  0.111111  0.000000  0.000000      6.000000
  0.166667  0.000000  0.000000      6.000000
  0.222222  0.000000  0.000000      6.000000
  0.277778  0.000000  0.000000      6.000000
  0.333333  0.000000  0.000000      6.000000
  0.388889  0.000000  0.000000      6.000000
  0.444444  0.000000  0.000000      6.000000
  0.500000  0.000000  0.000000      3.000000
  0.055556  0.055556  0.000000      6.000000
  0.111111  0.055556  0.000000     12.000000
  0.166667  0.055556  0.000000     12.000000
  0.222222  0.055556  0.000000     12.000000
  0.277778  0.055556  0.000000     12.000000
  0.333333  0.055556  0.000000     12.000000
  0.388889  0.055556  0.000000     12.000000
  0.444444  0.055556  0.000000     12.000000
  0.111111  0.111111  0.000000      6.000000
  0.166667  0.111111  0.000000     12.000000
  0.222222  0.111111  0.000000     12.000000
  0.277778  0.111111  0.000000     12.000000
  0.333333  0.111111  0.000000     12.000000
  0.388889  0.111111  0.000000     12.000000
  0.444444  0.111111  0.000000      6.000000
  0.166667  0.166667  0.000000      6.000000
  0.222222  0.166667  0.000000     12.000000
  0.277778  0.166667  0.000000     12.000000
  0.333333  0.166667  0.000000     12.000000
  0.388889  0.166667  0.000000     12.000000
  0.222222  0.222222  0.000000      6.000000
  0.277778  0.222222  0.000000     12.000000
  0.333333  0.222222  0.000000     12.000000
  0.388889  0.222222  0.000000      6.000000
  0.277778  0.277778  0.000000      6.000000
  0.333333  0.277778  0.000000     12.000000
  0.333333  0.333333  0.000000      2.000000

 Following cartesian coordinates:
            Coordinates               Weight
  0.000000  0.000000  0.000000      1.000000
  0.017438  0.010068  0.000000      6.000000
  0.034875  0.020135  0.000000      6.000000
  0.052313  0.030203  0.000000      6.000000
  0.069751  0.040271  0.000000      6.000000
  0.087188  0.050338  0.000000      6.000000
  0.104626  0.060406  0.000000      6.000000
  0.122064  0.070474  0.000000      6.000000
  0.139502  0.080541  0.000000      6.000000
  0.156939  0.090609  0.000000      3.000000
  0.017438  0.030203  0.000000      6.000000
  0.034875  0.040271  0.000000     12.000000
  0.052313  0.050338  0.000000     12.000000
  0.069751  0.060406  0.000000     12.000000
  0.087188  0.070474  0.000000     12.000000
  0.104626  0.080541  0.000000     12.000000
  0.122064  0.090609  0.000000     12.000000
  0.139502  0.100677  0.000000     12.000000
  0.034875  0.060406  0.000000      6.000000
  0.052313  0.070474  0.000000     12.000000
  0.069751  0.080541  0.000000     12.000000
  0.087188  0.090609  0.000000     12.000000
  0.104626  0.100677  0.000000     12.000000
  0.122064  0.110744  0.000000     12.000000
  0.139502  0.120812  0.000000      6.000000
  0.052313  0.090609  0.000000      6.000000
  0.069751  0.100677  0.000000     12.000000
  0.087188  0.110744  0.000000     12.000000
  0.104626  0.120812  0.000000     12.000000
  0.122064  0.130880  0.000000     12.000000
  0.069751  0.120812  0.000000      6.000000
  0.087188  0.130880  0.000000     12.000000
  0.104626  0.140947  0.000000     12.000000
  0.122064  0.151015  0.000000      6.000000
  0.087188  0.151015  0.000000      6.000000
  0.104626  0.161083  0.000000     12.000000
  0.104626  0.181218  0.000000      2.000000

 TETIRR: Found    169 inequivalent tetrahedra from     1944

 Subroutine IBZKPT_HF returns following result:

 Found    324 k-points in 1st BZ
 the following    324 k-points will be used (e.g. in the exchange kernel)
 Following reciprocal coordinates:   # in IRBZ
  0.000000  0.000000  0.000000    0.00308642   1 t-inv F
  0.055556  0.000000  0.000000    0.00308642   2 t-inv F
  0.111111  0.000000  0.000000    0.00308642   3 t-inv F
  0.166667  0.000000  0.000000    0.00308642   4 t-inv F
  0.222222  0.000000  0.000000    0.00308642   5 t-inv F
  0.277778  0.000000  0.000000    0.00308642   6 t-inv F
  0.333333  0.000000  0.000000    0.00308642   7 t-inv F
  0.388889  0.000000  0.000000    0.00308642   8 t-inv F
  0.444444  0.000000  0.000000    0.00308642   9 t-inv F
  0.500000  0.000000  0.000000    0.00308642  10 t-inv F
  0.055556  0.055556  0.000000    0.00308642  11 t-inv F
  0.111111  0.055556  0.000000    0.00308642  12 t-inv F
  0.166667  0.055556  0.000000    0.00308642  13 t-inv F
  0.222222  0.055556  0.000000    0.00308642  14 t-inv F
  0.277778  0.055556  0.000000    0.00308642  15 t-inv F
  0.333333  0.055556  0.000000    0.00308642  16 t-inv F
  0.388889  0.055556  0.000000    0.00308642  17 t-inv F
  0.444444  0.055556  0.000000    0.00308642  18 t-inv F
  0.111111  0.111111  0.000000    0.00308642  19 t-inv F
  0.166667  0.111111  0.000000    0.00308642  20 t-inv F
  0.222222  0.111111  0.000000    0.00308642  21 t-inv F
  0.277778  0.111111  0.000000    0.00308642  22 t-inv F
  0.333333  0.111111  0.000000    0.00308642  23 t-inv F
  0.388889  0.111111  0.000000    0.00308642  24 t-inv F
  0.444444  0.111111  0.000000    0.00308642  25 t-inv F
  0.166667  0.166667  0.000000    0.00308642  26 t-inv F
  0.222222  0.166667  0.000000    0.00308642  27 t-inv F
  0.277778  0.166667  0.000000    0.00308642  28 t-inv F
  0.333333  0.166667  0.000000    0.00308642  29 t-inv F
  0.388889  0.166667  0.000000    0.00308642  30 t-inv F
  0.222222  0.222222  0.000000    0.00308642  31 t-inv F
  0.277778  0.222222  0.000000    0.00308642  32 t-inv F
  0.333333  0.222222  0.000000    0.00308642  33 t-inv F
  0.388889  0.222222  0.000000    0.00308642  34 t-inv F
  0.277778  0.277778  0.000000    0.00308642  35 t-inv F
  0.333333  0.277778  0.000000    0.00308642  36 t-inv F
  0.333333  0.333333  0.000000    0.00308642  37 t-inv F
 -0.055556 -0.000000 -0.000000    0.00308642   2 t-inv F
  0.055556 -0.055556 -0.000000    0.00308642   2 t-inv F
 -0.055556  0.055556  0.000000    0.00308642   2 t-inv F
  0.000000 -0.055556  0.000000    0.00308642   2 t-inv F
 -0.000000  0.055556 -0.000000    0.00308642   2 t-inv F
 -0.111111 -0.000000 -0.000000    0.00308642   3 t-inv F
  0.111111 -0.111111 -0.000000    0.00308642   3 t-inv F
 -0.111111  0.111111  0.000000    0.00308642   3 t-inv F
  0.000000 -0.111111  0.000000    0.00308642   3 t-inv F
 -0.000000  0.111111 -0.000000    0.00308642   3 t-inv F
 -0.166667 -0.000000 -0.000000    0.00308642   4 t-inv F
  0.166667 -0.166667 -0.000000    0.00308642   4 t-inv F
 -0.166667  0.166667  0.000000    0.00308642   4 t-inv F
  0.000000 -0.166667  0.000000    0.00308642   4 t-inv F
[...]

  length of vectors
     3.185945950  3.185945950 50.000000000     0.362435696  0.362435696  0.020000000

 FORCES acting on ions
    electron-ion (+dipol)            ewald-force                    non-local-force                 convergence-correction
   -.249E-06 0.300E-06 0.571E+04   0.120E-10 -.691E-11 -.571E+04   0.867E-17 -.173E-17 0.187E-01   -.853E-10 0.493E-10 0.615E-05
   0.294E-06 -.144E-06 0.190E+04   -.120E-10 0.694E-11 -.190E+04   0.347E-17 0.347E-17 0.252E-03   0.868E-10 -.502E-10 -.378E-06
   -.294E-06 0.144E-06 -.190E+04   0.120E-10 -.697E-11 0.190E+04   0.347E-17 -.347E-17 -.252E-03   -.868E-10 0.502E-10 0.378E-06
   0.249E-06 -.300E-06 -.571E+04   -.119E-10 0.689E-11 0.571E+04   0.000E+00 0.173E-17 -.187E-01   0.854E-10 -.493E-10 -.615E-05
   -.124E-06 0.225E-06 0.169E+04   -.610E-11 0.351E-11 -.168E+04   0.000E+00 -.347E-17 -.812E+01   0.584E-11 -.337E-11 0.353E-05
   -.369E-07 0.200E-06 0.321E+04   -.598E-11 0.343E-11 -.322E+04   0.208E-16 -.694E-17 0.805E+01   0.176E-10 -.101E-10 0.502E-06
   0.130E-07 -.614E-07 0.538E+02   0.609E-11 -.353E-11 -.458E+02   -.173E-16 0.347E-17 -.811E+01   -.176E-10 0.101E-10 0.283E-05
   -.194E-07 -.166E-06 0.158E+04   0.617E-11 -.360E-11 -.159E+04   -.173E-16 0.000E+00 0.810E+01   -.175E-10 0.101E-10 -.321E-05
   0.194E-07 0.166E-06 -.158E+04   -.615E-11 0.356E-11 0.159E+04   0.139E-16 0.000E+00 -.810E+01   0.175E-10 -.101E-10 0.321E-05
   -.130E-07 0.614E-07 -.538E+02   -.608E-11 0.349E-11 0.458E+02   0.347E-17 -.347E-17 0.811E+01   0.176E-10 -.101E-10 -.283E-05
   0.369E-07 -.200E-06 -.321E+04   0.598E-11 -.347E-11 0.322E+04   -.191E-16 0.139E-16 -.805E+01   -.176E-10 0.101E-10 -.502E-06
   0.124E-06 -.225E-06 -.169E+04   0.609E-11 -.353E-11 0.168E+04   -.104E-16 0.347E-17 0.812E+01   -.585E-11 0.337E-11 -.353E-05
   -.433E-10 0.365E-10 0.137E-09   0.130E-12 -.208E-12 0.227E-11   -.104E-16 0.694E-17 0.000E+00   -.951E-15 0.716E-14 0.106E-10

 POSITION                                       TOTAL-FORCE (eV/Angst)
     -0.00000      0.91970     15.77500         0.000000      0.000000      0.067336
      1.59297      1.83941     21.92500        -0.000000      0.000000      0.002161
     -0.00000      0.91970     28.07500        -0.000000     -0.000000     -0.002161
      1.59297      1.83941     34.22500        -0.000000     -0.000000     -0.067336
      1.59297      1.83941     17.34780        -0.000000     -0.000000     -0.126291
      1.59297      1.83941     14.20220        -0.000000     -0.000000      0.055463
     -0.00000      0.91970     23.49780         0.000000      0.000000     -0.138494
     -0.00000      0.91970     20.35220         0.000000     -0.000000      0.140030
      1.59297      1.83941     29.64780        -0.000000      0.000000     -0.140030
      1.59297      1.83941     26.50220         0.000000     -0.000000      0.138494
     -0.00000      0.91970     35.79780         0.000000      0.000000     -0.055463
     -0.00000      0.91970     32.65220         0.000000      0.000000      0.126291
    total drift:                               -0.000000      0.000000      0.000000

  FREE ENERGIE OF THE ION-ELECTRON SYSTEM (eV)
  free  energy   TOTEN  =      -105.89589286 eV

  energy  without entropy=     -105.89589286  energy(sigma->0) =     -105.89589286

 Linear response reoptimize wavefunctions
 Linear response G [H, r] |phi>, progress :
  Direction:   1

[...]

  free energy    TOTEN  =      -456.63601802 eV

[...]

 Linear response G [H, r] |phi>, progress :
  Direction:   2

[...]

 Linear response G [H, r] |phi>, progress :
  Direction:   3

[...]

  free energy    TOTEN  =      -453.52228106 eV

[...]

 Linear response to external field (no local field effect), progress :
  Direction:   1
  LATTYP: Found a hexagonal cell.
 ALAT       =     3.1859459497
 C/A-ratio  =    15.6939260082

[...]

The dynamic configuration has the point symmetry C_2 .

[...]

 Free energy of the ion-electron system (eV)
  -Hartree energ DENC   =         0.00000000
  -V(xc)+E(xc)   XCENC  =         0.00000000
  PAW double counting   =         0.00000000        0.00000000
  entropy T*S    EENTRO =         0.00000000
  eigenvalues    EBANDS =        -7.25973868
  free energy    TOTEN  =        -7.25973868 eV

  energy without entropy =       -7.25973868

[...]

 change of polarisation eV/A/(eV/A) component  1 :    16.891    -2.161    -0.051
 dielectric tensor                  component  1 :     7.954    -0.890    -0.021

[...]

The dynamic configuration has the point symmetry C_1h.

[...]

 Linear response to external field (no local field effect), progress :
  Direction:   3
  LATTYP: Found a hexagonal cell.
 ALAT       =     3.1859459497
 C/A-ratio  =    15.6939260082

[...]

The dynamic configuration has the point symmetry C_1h.
 The point group associated with its full space group is C_3v.

[...]

 HEAD OF MICROSCOPIC STATIC DIELECTRIC TENSOR (INDEPENDENT PARTICLE, excluding Hartree and local field effects)
           7.739307    -0.000000    -0.000000
          -0.000000     7.739307     0.000000
           0.000000     0.000000     4.919397

 Linear response to external field, progress :
  Direction:   1
  LATTYP: Found a hexagonal cell.
 ALAT       =     3.1859459497
 C/A-ratio  =    15.6939260082

[...]

The dynamic configuration has the point symmetry C_2 .

[...]

  Parameters of vdW forcefield:
            C6ts              R0ts           ALPHAts        RELVOL
            (au)              (au)            (au)
   W         873.707          4.102         72.112          1.015
   W         882.163          4.109         72.461          1.020
   W         882.163          4.109         72.461          1.020
   W         873.707          4.102         72.112          1.015
   S         135.469          3.862         19.707          1.005
   S         132.620          3.848         19.499          0.995
   S         135.472          3.862         19.707          1.005
   S         135.466          3.862         19.707          1.005
   S         135.466          3.862         19.707          1.005
   S         135.472          3.862         19.707          1.005
   S         132.620          3.848         19.499          0.995
   S         135.469          3.862         19.707          1.005
  Edisp (eV):   -3.26970

[...]

 PIEZOELECTRIC TENSOR FIELD DIRECTION 1  (e Angst)
    -0.00480  0.00000  0.00000           ( -0.00028  0.00000  0.00000)
     0.00000  0.00690  0.00015           (  0.00000  0.00017  0.00000)
     0.00000  0.00009 -0.00101           (  0.00000  0.00000 -0.00006)

 PIEZOELECTRIC TENSOR FIELD DIRECTION 1  (C/m^2)
    -0.00018  0.00000  0.00000
     0.00000  0.00025  0.00001
     0.00000  0.00000 -0.00004

      POSITION         DIRECTION 1           BORN EFFECTIVE CHARGE    (rigid.aug.   ionic)
     -0.00000      0.91970     15.77500    -0.45044 -0.00036  0.00003 (  1.96478 14.00000)
      1.59297      1.83941     21.92500    -0.45593  0.00029  0.00000 (  1.96472 14.00000)
     -0.00000      0.91970     28.07500    -0.45593 -0.00029 -0.00000 (  1.96472 14.00000)
      1.59297      1.83941     34.22500    -0.45044  0.00036 -0.00003 (  1.96478 14.00000)
      1.59297      1.83941     17.34780     0.24062 -0.00142  0.00010 (  0.65943  6.00000)
      1.59297      1.83941     14.20220     0.25930 -0.00137 -0.00005 (  0.65870  6.00000)
     -0.00000      0.91970     23.49780     0.25281  0.00145  0.00011 (  0.65945  6.00000)
     -0.00000      0.91970     20.35220     0.25317  0.00146 -0.00011 (  0.65945  6.00000)
      1.59297      1.83941     29.64780     0.25317 -0.00146  0.00011 (  0.65945  6.00000)
      1.59297      1.83941     26.50220     0.25281 -0.00145 -0.00011 (  0.65945  6.00000)
     -0.00000      0.91970     35.79780     0.25930  0.00137  0.00005 (  0.65870  6.00000)
     -0.00000      0.91970     32.65220     0.24062  0.00142 -0.00010 (  0.65943  6.00000)
    total drift (improves with k-points):   0.19904  0.00000  0.00000

[...]

The dynamic configuration has the point symmetry C_1h.

[...]

 Linear response to external field, progress :
  Direction:   3
  LATTYP: Found a hexagonal cell.
 ALAT       =     3.1859459497
 C/A-ratio  =    15.6939260082

[...]

The dynamic configuration has the point symmetry C_1h.
 The point group associated with its full space group is C_3v.

[...]

----------------------------------------- Iteration    3(  23)  ---------------------------------------

 Broyden mixing:
  rms(total) = 0.53040E-06    rms(broyden)= 0.53030E-06
  rms(prec ) = 0.60743E-06
  weight for this iteration     100.00

 eigenvalues of (default mixing * dielectric matrix)
  average eigenvalue GAMMA=   2.2956
  9.2129  6.9665  4.8672  3.6846  2.9988  2.9988  2.1550  2.1550  1.7562  1.4027
  1.2783  1.2205  1.0427  0.9207  0.9207  0.9521  0.8340  0.7562  0.6772  0.7074
  0.6998

 Free energy of the ion-electron system (eV)
  -Hartree energ DENC   =        -0.64901003
  -V(xc)+E(xc)   XCENC  =         0.00950240
  PAW double counting   =         0.02619649       -0.02628932
  entropy T*S    EENTRO =         0.00000000
  eigenvalues    EBANDS =        -0.22395814
  free energy    TOTEN  =        -0.86355860 eV

  energy without entropy =       -0.86355860

------------------------ aborting loop because EDIFF is reached ----------------------------------------

 change of polarisation eV/A/(eV/A) component  3 :    -0.006     0.002     1.694
 dielectric tensor                  component  3 :    -0.002     0.001     1.698

[...]

  Hirshfeld charges:
            ion         q(e)
      1     W           0.351
      2     W           0.350
      3     W           0.350
      4     W           0.351
      5     S          -0.175
      6     S          -0.176
      7     S          -0.175
      8     S          -0.175
      9     S          -0.175
     10     S          -0.175
     11     S          -0.176
     12     S          -0.175

  Tkatchenko/Scheffler method for vdW energy calculation

  Parameters of vdW forcefield:
            C6ts              R0ts           ALPHAts        RELVOL
            (au)              (au)            (au)
   W         873.707          4.102         72.112          1.015
   W         882.163          4.109         72.461          1.020
   W         882.163          4.109         72.461          1.020
   W         873.707          4.102         72.112          1.015
   S         135.469          3.862         19.707          1.005
   S         132.620          3.848         19.499          0.995
   S         135.472          3.862         19.707          1.005
   S         135.466          3.862         19.707          1.005
   S         135.466          3.862         19.707          1.005
   S         135.472          3.862         19.707          1.005
   S         132.620          3.848         19.499          0.995
   S         135.469          3.862         19.707          1.005
  Edisp (eV):   -3.26970

 PIEZOELECTRIC TENSOR FIELD DIRECTION 3  (e Angst)
     0.20182 -0.00000  0.00000           ( -0.00000 -0.00000  0.00000)
     0.00000  0.20182 -0.00000           (  0.00000 -0.00000 -0.00000)
    -0.00000 -0.00000  0.33763           ( -0.00000 -0.00000  0.00000)

 PIEZOELECTRIC TENSOR FIELD DIRECTION 3  (C/m^2)
     0.00736 -0.00000  0.00000
     0.00000  0.00736 -0.00000
    -0.00000 -0.00000  0.01231

      POSITION         DIRECTION 3           BORN EFFECTIVE CHARGE    (rigid.aug.   ionic)
     -0.00000      0.91970     15.77500     0.00000 -0.00000-26.46623 (  1.96478 14.00000)
      1.59297      1.83941     21.92500     0.00000 -0.00000 -3.54704 (  1.96472 14.00000)
     -0.00000      0.91970     28.07500    -0.00000 -0.00000 -3.58372 (  1.96472 14.00000)
      1.59297      1.83941     34.22500    -0.00000  0.00000-26.38857 (  1.96478 14.00000)
      1.59297      1.83941     17.34780    -0.00000  0.00000 -1.50865 (  0.65943  6.00000)
      1.59297      1.83941     14.20220    -0.00000  0.00000  2.77380 (  0.65870  6.00000)
     -0.00000      0.91970     23.49780     0.00000  0.00000  0.01181 (  0.65945  6.00000)
     -0.00000      0.91970     20.35220     0.00000  0.00000  0.55512 (  0.65945  6.00000)
      1.59297      1.83941     29.64780     0.00000  0.00000  0.62646 (  0.65945  6.00000)
      1.59297      1.83941     26.50220     0.00000 -0.00000  0.06809 (  0.65945  6.00000)
     -0.00000      0.91970     35.79780    -0.00000 -0.00000  2.73481 (  0.65870  6.00000)
     -0.00000      0.91970     32.65220    -0.00000  0.00000 -1.58576 (  0.65943  6.00000)
    total drift (improves with k-points):  -0.00000  0.00000-56.30986

[...]

 MACROSCOPIC STATIC DIELECTRIC TENSOR (including local field effects in DFT)
           7.401217     0.000000    -0.000000
          -0.000000     7.401217     0.000000
          -0.000000     0.000000     1.697521

  LATTYP: Found a hexagonal cell.
 ALAT       =     3.1859459497
 C/A-ratio  =    15.6939260082

  Lattice vectors:

 A1 = (   3.1859459497,   0.0000000000,   0.0000000000)
 A2 = (  -1.5929729748,   2.7591101275,   0.0000000000)
 A3 = (   0.0000000000,   0.0000000000,  50.0000000000)

Analysis of symmetry for initial positions (statically):
 Subroutine PRICEL returns:
 Original cell was already a primitive cell.

[...]

The static configuration has the point symmetry C_2h.
 The point group associated with its full space group is D_3d.

Analysis of symmetry for dynamics (positions and initial velocities):
 Subroutine PRICEL returns:
 Original cell was already a primitive cell.

 Routine SETGRP: Setting up the symmetry group for a
 hexagonal supercell.

 Subroutine GETGRP returns: Found 12 space group operations
 (whereof  4 operations were pure point group operations)
 out of a pool of 24 trial point group operations.

The dynamic configuration has the point symmetry C_2h.
 The point group associated with its full space group is D_3d.

 Subroutine INISYM returns: Found 12 space group operations
 (whereof  4 operations are pure point group operations),
 and found     1 'primitive' translations

 MACROSCOPIC STATIC DIELECTRIC TENSOR (including local field effects in DFT)
           7.401217     0.000000    -0.000000
          -0.000000     7.401217     0.000000
          -0.000000     0.000000     1.697521

 PIEZOELECTRIC TENSOR  for field in x, y, z        (e  Angst)
          XX          YY          ZZ          XY          YZ          ZX
  x    -0.00480     0.00690    -0.00101     0.00000     0.00009     0.00000
  y    -0.00934     0.01548     0.00139     0.00000     0.00010     0.00000
  z     0.20182     0.20182     0.33763     0.00000    -0.00000     0.00000

 PIEZOELECTRIC TENSOR  for field in x, y, z        (C/m^2)
          XX          YY          ZZ          XY          YZ          ZX
  x     0.00000     0.00000     0.00000     0.00000     0.00000     0.00000
  y     0.00000     0.00000     0.00000     0.00000     0.00000     0.00000
  z     0.00000     0.00000     0.00000     0.00000     0.00000     0.00000

 BORN EFFECTIVE CHARGES (in e, cummulative output)
 ion    1
    1    -0.45044    -0.00036     0.00003
    2     0.00000    -0.45124     0.00001
    3     0.00000    -0.00000   -26.46623
 ion    2
    1    -0.45593     0.00029     0.00000
    2     0.00000    -0.45507    -0.00001
    3     0.00000    -0.00000    -3.54704
 ion    3
    1    -0.45593    -0.00029    -0.00000
    2     0.00000    -0.45679     0.00001
    3    -0.00000    -0.00000    -3.58372
 ion    4
    1    -0.45044     0.00036    -0.00003
    2     0.00000    -0.44965    -0.00001
    3    -0.00000     0.00000   -26.38857
 ion    5
    1     0.24062    -0.00142     0.00010
    2     0.00000     0.24106     0.00076
    3    -0.00000     0.00000    -1.50865
 ion    6
    1     0.25930    -0.00137    -0.00005
    2    -0.00000     0.25972    -0.00050
    3    -0.00000     0.00000     2.77380
 ion    7
    1     0.25281     0.00145     0.00011
    2     0.00000     0.25233     0.00075
    3     0.00000     0.00000     0.01181
 ion    8
    1     0.25317     0.00146    -0.00011
    2    -0.00000     0.25272    -0.00075
    3     0.00000     0.00000     0.55512
 ion    9
    1     0.25317    -0.00146     0.00011
    2     0.00000     0.25363     0.00076
    3     0.00000     0.00000     0.62646
 ion   10
    1     0.25281    -0.00145    -0.00011
    2    -0.00000     0.25329    -0.00075
    3     0.00000    -0.00000     0.06809
 ion   11
    1     0.25930     0.00137     0.00005
    2    -0.00000     0.25888     0.00050
    3    -0.00000    -0.00000     2.73481
 ion   12
    1     0.24062     0.00142    -0.00010
    2    -0.00000     0.24019    -0.00076
    3    -0.00000     0.00000    -1.58576

 writing wavefunctions
 BZINTS: Fermi energy:  1.164272;104.000000 electrons
         Band energy:***********;  BLOECHL correction:  0.000000