 vasp.5.4.1 24Jun15 (build Apr 13 2016 13:07:19) complex

 executed on           IFC91_ompi date 2019.09.13  17:22:21

 INCAR:
 POTCAR:    PAW_PBE Mo_sv_GW 05Dec2013
 POTCAR:    PAW_PBE S_GW 19Mar2012

 POTCAR:    PAW_PBE Mo_sv_GW 05Dec2013
   VRHFIN =Mo: 4s4p5s4d

   TITEL  = PAW_PBE Mo_sv_GW 05Dec2013
   POMASS =   95.940; ZVAL   =   14.000    mass and valenz
   ENMAX  =  344.914; ENMIN  =  258.686 eV

 POTCAR:    PAW_PBE S_GW 19Mar2012
   VRHFIN =S : s2p4

   TITEL  = PAW_PBE S_GW 19Mar2012
   POMASS =   32.066; ZVAL   =    6.000    mass and valenz
   ENMAX  =  258.689; ENMIN  =  194.016 eV

  PAW_PBE Mo_sv_GW 05Dec2013            :
  PAW_PBE S_GW 19Mar2012                :

 POSCAR: Mo  S
  positions in cartesian coordinates
 exchange correlation table for  LEXCH =        8
   RHO(1)=    0.500       N(1)  =     2000
   RHO(2)=  100.500       N(2)  =     4000

 ion  position               nearest neighbor table
   1  0.167  0.333  0.500-   2 2.41   3 2.41   2 2.41   3 2.41   2 2.41   3 2.41
   2  0.833  0.667  0.531-   1 2.41   1 2.41   1 2.41
   3  0.833  0.667  0.469-   1 2.41   1 2.41   1 2.41

  LATTYP: Found a hexagonal cell.
 ALAT       =     3.1840664647
 C/A-ratio  =    15.7031897903

  Lattice vectors:

 A1 = (   3.1840664647,   0.0000000000,   0.0000000000)
 A2 = (  -1.5920332323,   2.7574824458,   0.0000000000)
 A3 = (   0.0000000000,   0.0000000000,  50.0000000000)

Analysis of symmetry for initial positions (statically):
 Subroutine PRICEL returns:
 Original cell was already a primitive cell.

 Routine SETGRP: Setting up the symmetry group for a
 hexagonal supercell.

 Subroutine GETGRP returns: Found 12 space group operations
 (whereof  4 operations were pure point group operations)
 out of a pool of 24 trial point group operations.

The static configuration has the point symmetry C_2v.
 The point group associated with its full space group is D_3h.

Analysis of symmetry for dynamics (positions and initial velocities):
 Subroutine PRICEL returns:
 Original cell was already a primitive cell.

[...]

The dynamic configuration has the point symmetry C_2v.
 The point group associated with its full space group is D_3h.

 Subroutine INISYM returns: Found 12 space group operations
 (whereof  4 operations are pure point group operations),
 and found     1 'primitive' translations

 KPOINTS: KPOINTS created by Atomic Simulation Env

Automatic generation of k-mesh.
Space group operators:
 irot       det(A)        alpha          n_x          n_y          n_z        tau_x        tau_y        tau_z
    1     1.000000     0.000000     1.000000     0.000000     0.000000     0.000000     0.000000     0.000000
    2    -1.000000   180.000000     0.000000     0.000000     1.000000     0.000000     0.000000     0.000000
    3    -1.000000   180.000000     1.000000     0.000000     0.000000     0.000000     0.000000     0.000000
    4     1.000000   180.000000     0.000000     1.000000     0.000000     0.000000     0.000000     0.000000
    5    -1.000000    60.000000     0.000000     0.000000    -1.000000     0.000000     0.500000     0.000000
    6     1.000000   120.000000     0.000000     0.000000    -1.000000     0.500000     0.500000     0.000000
    7     1.000000   120.000000     0.000000     0.000000     1.000000     0.000000     0.500000     0.000000
    8    -1.000000    60.000000     0.000000     0.000000     1.000000     0.500000     0.500000     0.000000
    9     1.000000   180.000000     0.866025    -0.500000     0.000000     0.500000     0.500000     0.000000
   10    -1.000000   180.000000     0.500000    -0.866025     0.000000     0.000000     0.500000     0.000000
   11    -1.000000   180.000000    -0.500000    -0.866025     0.000000     0.500000     0.500000     0.000000
   12     1.000000   180.000000     0.866025     0.500000     0.000000     0.000000     0.500000     0.000000

 Subroutine IBZKPT returns following result:

 Found     37 irreducible k-points:

 Following reciprocal coordinates:
            Coordinates               Weight
  0.000000  0.000000  0.000000      1.000000
  0.055556  0.000000  0.000000      6.000000
  0.111111  0.000000  0.000000      6.000000
  0.166667  0.000000  0.000000      6.000000
  0.222222  0.000000  0.000000      6.000000
  0.277778  0.000000  0.000000      6.000000
  0.333333  0.000000  0.000000      6.000000
  0.388889  0.000000  0.000000      6.000000
  0.444444  0.000000  0.000000      6.000000
  0.500000  0.000000  0.000000      3.000000
  0.055556  0.055556  0.000000      6.000000
  0.111111  0.055556  0.000000     12.000000
  0.166667  0.055556  0.000000     12.000000
  0.222222  0.055556  0.000000     12.000000
  0.277778  0.055556  0.000000     12.000000
  0.333333  0.055556  0.000000     12.000000
  0.388889  0.055556  0.000000     12.000000
  0.444444  0.055556  0.000000     12.000000
  0.111111  0.111111  0.000000      6.000000
  0.166667  0.111111  0.000000     12.000000
  0.222222  0.111111  0.000000     12.000000
  0.277778  0.111111  0.000000     12.000000
  0.333333  0.111111  0.000000     12.000000
  0.388889  0.111111  0.000000     12.000000
  0.444444  0.111111  0.000000      6.000000
  0.166667  0.166667  0.000000      6.000000
  0.222222  0.166667  0.000000     12.000000
  0.277778  0.166667  0.000000     12.000000
  0.333333  0.166667  0.000000     12.000000
  0.388889  0.166667  0.000000     12.000000
  0.222222  0.222222  0.000000      6.000000
  0.277778  0.222222  0.000000     12.000000
  0.333333  0.222222  0.000000     12.000000
  0.388889  0.222222  0.000000      6.000000
  0.277778  0.277778  0.000000      6.000000
  0.333333  0.277778  0.000000     12.000000
  0.333333  0.333333  0.000000      2.000000

 Following cartesian coordinates:
            Coordinates               Weight
  0.000000  0.000000  0.000000      1.000000
  0.017448  0.010074  0.000000      6.000000
  0.034896  0.020147  0.000000      6.000000
  0.052344  0.030221  0.000000      6.000000
  0.069792  0.040294  0.000000      6.000000
  0.087240  0.050368  0.000000      6.000000
  0.104688  0.060442  0.000000      6.000000
  0.122136  0.070515  0.000000      6.000000
  0.139584  0.080589  0.000000      6.000000
  0.157032  0.090662  0.000000      3.000000
  0.017448  0.030221  0.000000      6.000000
  0.034896  0.040294  0.000000     12.000000
  0.052344  0.050368  0.000000     12.000000
  0.069792  0.060442  0.000000     12.000000
  0.087240  0.070515  0.000000     12.000000
  0.104688  0.080589  0.000000     12.000000
  0.122136  0.090662  0.000000     12.000000
  0.139584  0.100736  0.000000     12.000000
  0.034896  0.060442  0.000000      6.000000
  0.052344  0.070515  0.000000     12.000000
  0.069792  0.080589  0.000000     12.000000
  0.087240  0.090662  0.000000     12.000000
  0.104688  0.100736  0.000000     12.000000
  0.122136  0.110810  0.000000     12.000000
  0.139584  0.120883  0.000000      6.000000
  0.052344  0.090662  0.000000      6.000000
  0.069792  0.100736  0.000000     12.000000
  0.087240  0.110810  0.000000     12.000000
  0.104688  0.120883  0.000000     12.000000
  0.122136  0.130957  0.000000     12.000000
  0.069792  0.120883  0.000000      6.000000
  0.087240  0.130957  0.000000     12.000000
  0.104688  0.141030  0.000000     12.000000
  0.122136  0.151104  0.000000      6.000000
  0.087240  0.151104  0.000000      6.000000
  0.104688  0.161178  0.000000     12.000000
  0.104688  0.181325  0.000000      2.000000

 TETIRR: Found    169 inequivalent tetrahedra from     1944

 Subroutine IBZKPT_HF returns following result:

 Found    324 k-points in 1st BZ
 the following    324 k-points will be used (e.g. in the exchange kernel)
 Following reciprocal coordinates:   # in IRBZ
  0.000000  0.000000  0.000000    0.00308642   1 t-inv F
  0.055556  0.000000  0.000000    0.00308642   2 t-inv F
  0.111111  0.000000  0.000000    0.00308642   3 t-inv F
  0.166667  0.000000  0.000000    0.00308642   4 t-inv F
  0.222222  0.000000  0.000000    0.00308642   5 t-inv F
  0.277778  0.000000  0.000000    0.00308642   6 t-inv F
  0.333333  0.000000  0.000000    0.00308642   7 t-inv F
  0.388889  0.000000  0.000000    0.00308642   8 t-inv F
  0.444444  0.000000  0.000000    0.00308642   9 t-inv F
  0.500000  0.000000  0.000000    0.00308642  10 t-inv F
  0.055556  0.055556  0.000000    0.00308642  11 t-inv F
  0.111111  0.055556  0.000000    0.00308642  12 t-inv F
  0.166667  0.055556  0.000000    0.00308642  13 t-inv F
  0.222222  0.055556  0.000000    0.00308642  14 t-inv F
  0.277778  0.055556  0.000000    0.00308642  15 t-inv F
  0.333333  0.055556  0.000000    0.00308642  16 t-inv F
  0.388889  0.055556  0.000000    0.00308642  17 t-inv F
  0.444444  0.055556  0.000000    0.00308642  18 t-inv F
  0.111111  0.111111  0.000000    0.00308642  19 t-inv F
  0.166667  0.111111  0.000000    0.00308642  20 t-inv F
  0.222222  0.111111  0.000000    0.00308642  21 t-inv F
  0.277778  0.111111  0.000000    0.00308642  22 t-inv F
  0.333333  0.111111  0.000000    0.00308642  23 t-inv F
  0.388889  0.111111  0.000000    0.00308642  24 t-inv F
  0.444444  0.111111  0.000000    0.00308642  25 t-inv F
  0.166667  0.166667  0.000000    0.00308642  26 t-inv F
  0.222222  0.166667  0.000000    0.00308642  27 t-inv F
  0.277778  0.166667  0.000000    0.00308642  28 t-inv F
  0.333333  0.166667  0.000000    0.00308642  29 t-inv F
  0.388889  0.166667  0.000000    0.00308642  30 t-inv F
  0.222222  0.222222  0.000000    0.00308642  31 t-inv F
  0.277778  0.222222  0.000000    0.00308642  32 t-inv F
  0.333333  0.222222  0.000000    0.00308642  33 t-inv F
  0.388889  0.222222  0.000000    0.00308642  34 t-inv F
  0.277778  0.277778  0.000000    0.00308642  35 t-inv F
  0.333333  0.277778  0.000000    0.00308642  36 t-inv F
  0.333333  0.333333  0.000000    0.00308642  37 t-inv F
 -0.055556  0.055556  0.000000    0.00308642   2 t-inv F
  0.000000 -0.055556 -0.000000    0.00308642   2 t-inv F
 -0.111111  0.111111  0.000000    0.00308642   3 t-inv F
  0.000000 -0.111111 -0.000000    0.00308642   3 t-inv F
 -0.166667  0.166667  0.000000    0.00308642   4 t-inv F
  0.000000 -0.166667 -0.000000    0.00308642   4 t-inv F
 -0.222222  0.222222  0.000000    0.00308642   5 t-inv F
  0.000000 -0.222222 -0.000000    0.00308642   5 t-inv F
 -0.277778  0.277778  0.000000    0.00308642   6 t-inv F
  0.000000 -0.277778 -0.000000    0.00308642   6 t-inv F
 -0.333333  0.333333  0.000000    0.00308642   7 t-inv F
  0.000000 -0.333333 -0.000000    0.00308642   7 t-inv F
 -0.388889  0.388889  0.000000    0.00308642   8 t-inv F
  0.000000 -0.388889 -0.000000    0.00308642   8 t-inv F
 -0.444444  0.444444  0.000000    0.00308642   9 t-inv F
  0.000000 -0.444444 -0.000000    0.00308642   9 t-inv F
 -0.500000  0.500000  0.000000    0.00308642  10 t-inv F
  0.000000 -0.500000 -0.000000    0.00308642  10 t-inv F
 -0.055556  0.111111  0.000000    0.00308642  11 t-inv F
  0.055556 -0.111111 -0.000000    0.00308642  11 t-inv F
 -0.111111  0.055556  0.000000    0.00308642  11 t-inv F
 -0.055556 -0.055556 -0.000000    0.00308642  11 t-inv F
  0.111111 -0.055556  0.000000    0.00308642  11 t-inv F
[...]
  0.500000 -0.277778 -0.000000    0.00308642  32 t-inv T
[...]
      4     -39.3257      2.00000
      5     -16.3429      2.00000
      6     -16.2651      2.00000
      7      -9.7728      2.00000
      8      -8.9555      2.00000
      9      -8.4411      2.00000
     10      -7.9268      2.00000
     11      -7.2510      2.00000
     12      -6.5289      2.00000
     13      -4.4040      2.00000
     14      -2.7231      0.00000
     15      -1.3309      0.00000
     16      -0.8577      0.00000
     17       0.4555      0.00000
     18       2.8252      0.00000
     19       3.2002      0.00000
     20       5.1900      0.00000
     21       6.0039      0.00000
     22       6.7379      0.00000
     23       7.1738      0.00000
     24       7.2498      0.00000
     25       7.3218      0.00000
     26       7.6336      0.00000
     27       8.0897      0.00000
     28       8.0918      0.00000

 soft charge-density along one line, spin component           1
         0         1         2         3         4         5         6         7         8         9
 total charge-density along one line

------------------------ aborting loop because EDIFF is reached ----------------------------------------

  Hirshfeld charges:
            ion         q(e)
      1     Mo          0.375
      2     S          -0.188
      3     S          -0.188

  Atomic reference data used in the T-S method for vdW correction:
            C6at              R0at           ALPHAat      REFSTATE
            (au)              (au)            (au)
   Mo       1028.730          4.101         88.420         0
   S         134.000          3.855         19.600         0

  Tkatchenko/Scheffler method for vdW energy calculation

  Parameters of vdW forcefield:
            C6ts              R0ts           ALPHAts        RELVOL
            (au)              (au)            (au)
   Mo       1048.924          4.114         89.283          1.010
   S         133.823          3.854         19.587          0.999
   S         133.823          3.854         19.587          0.999

  IVDW =  20
  VDW_RADIUS =    50.000 A
  VDW_IDAMPF =  0
  VDW_S6 =     1.000
  VDW_SR =     0.940
  VDW_D =    20.000
  LVDW_EWALD = T
  Edisp (eV):   -0.59888

  FORCE on cell =-STRESS in cart. coord.  units (eV):
  Direction    XX          YY          ZZ          XY          YZ          ZX
  Alpha Z    10.89000    10.89000    10.89000
  Ewald   24108.28252 24108.28252-25513.75185    -0.00000     0.00000     0.00000
  Hartree 24478.64955 24478.64955-24239.80043    -0.00000    -0.00000    -0.00000
  E(xc)    -110.79885  -110.79885  -111.05559    -0.00000    -0.00000     0.00000
  Local  -49103.44440-49103.44442 49230.33219    -0.00001     0.00000    -0.00000
  n-local   127.75085   127.78200   130.93430    -0.16049    -0.00000    -0.00000
  augment   -42.01052   -42.01050   -43.08495     0.00001    -0.00000    -0.00000
  Kinetic   528.74527   531.78916   535.10733   -13.70659     0.00000     0.00000
  Fock        0.00000     0.00000     0.00000     0.00000     0.00000     0.00000
  vdW        -0.64184    -0.64184    -0.14566     0.00000    -0.00000    -0.00000
  Total      -1.03991    -1.03991    -0.57466    -0.00000     0.00000     0.00000
  in kB      -3.79525    -3.79525    -2.09727    -0.00000     0.00000     0.00000

 VOLUME and BASIS-vectors are now :
  energy-cutoff  :      344.91
  volume of cell :      439.00
      direct lattice vectors                 reciprocal lattice vectors
     3.184066465  0.000000000  0.000000000     0.314063796  0.181324817  0.000000000
    -1.592033232  2.757482446  0.000000000     0.000000000  0.362649634  0.000000000
     0.000000000  0.000000000 50.000000000     0.000000000  0.000000000  0.020000000

  length of vectors
     3.184066465  3.184066465 50.000000000     0.362649634  0.362649634  0.020000000

 FORCES acting on ions
    electron-ion (+dipol)            ewald-force                    non-local-force                 convergence-correction
   0.551E-08 -.318E-08 0.146E-10   0.124E-10 -.707E-11 0.000E+00   -.416E-16 0.694E-17 0.000E+00   -.111E-09 0.641E-10 -.490E-12
   -.130E-06 0.141E-06 -.106E+04   -.617E-11 0.355E-11 0.107E+04   0.867E-18 -.520E-17 -.773E+01   0.233E-11 -.134E-11 0.757E-06
   -.188E-06 0.420E-07 0.106E+04   -.617E-11 0.355E-11 -.107E+04   0.364E-16 0.000E+00 0.773E+01   0.234E-11 -.135E-11 -.757E-06
   -.312E-06 0.180E-06 0.543E-10   0.157E-13 0.383E-13 0.000E+00   -.434E-17 0.173E-17 -.888E-15   -.106E-09 0.614E-10 -.728E-12

 POSITION                                       TOTAL-FORCE (eV/Angst)
     -0.00000      0.91916     25.00000         0.000000     -0.000000      0.000000
      1.59203      1.83832     26.56356        -0.000000      0.000000     -0.029981
      1.59203      1.83832     23.43644         0.000000      0.000000      0.029981
    total drift:                               -0.000000      0.000000      0.000000

  FREE ENERGIE OF THE ION-ELECTRON SYSTEM (eV)
  free  energy   TOTEN  =       -23.19948333 eV

  energy  without entropy=      -23.19948333  energy(sigma->0) =      -23.19948333

 Linear response reoptimize wavefunctions

[...]

  free energy    TOTEN  =      -106.23258931 eV

[...]

 Free energy of the ion-electron system (eV)
  -Hartree energ DENCreal time    0.2777

[...]

  Parameters of vdW forcefield:
            C6ts              R0ts           ALPHAts        RELVOL
            (au)              (au)            (au)
   Mo       1048.924          4.114         89.283          1.010
   S         133.823          3.854         19.587          0.999
   S         133.823          3.854         19.587          0.999
  Edisp (eV):   -0.59888

[...]

 PIEZOELECTRIC TENSOR FIELD DIRECTION 1  (e Angst)
    -0.00265 -1.70396  0.00000           ( -0.00002 -0.03428  0.00000)
    -1.70396  0.00225  0.00000           ( -0.03428  0.00004  0.00000)
     0.00000  0.00000 -0.00004           (  0.00000  0.00000  0.00002)

 PIEZOELECTRIC TENSOR FIELD DIRECTION 1  (C/m^2)
    -0.00010 -0.06219  0.00000
    -0.06219  0.00008  0.00000
     0.00000  0.00000 -0.00000

      POSITION         DIRECTION 1           BORN EFFECTIVE CHARGE    (rigid.aug.   ionic)
     -0.00000      0.91916     25.00000    -0.99240 -0.00073  0.00000 (  0.17452 14.00000)
      1.59203      1.83832     26.56356     0.49366 -0.00026 -0.00013 (  0.66040  6.00000)
      1.59203      1.83832     23.43644     0.49366 -0.00026  0.00013 (  0.66040  6.00000)
    total drift (improves with k-points):  -0.00509 -0.00124  0.00000

723

[...]

  free energy    TOTEN  =      -108.73275513 eV

[...]

 Linear response to external field (no local field effect), progress :
  Direction:   1
  LATTYP: Found a hexagonal cell.
 ALAT       =     3.1840664647
 C/A-ratio  =    15.7031897903

[...]

The dynamic configuration has the point symmetry C_2v.

[...]

  energy without entropy =       -1.83673426
=         0.00000000
  PAW double counting   =         0.00000000        0.00000000
  entropy T*S    EENTRO =         0.00000000
  eigenvalues    EBANDS =        -2.24898073
  free energy    TOTEN  =        -2.24898073 eV

[...]

 Free energy of the ion-electron system (eV)
  -Hartree energ DENC   =         0.00000000
  -V(xc)+E(xc)   XCENC  =         0.00000000
  PAW double counting   =         0.00000000        0.00000000
  entropy T*S    EENTRO =         0.00000000
  eigenvalues    EBANDS =        -2.21472055
  ------------  7)  ---------------------------------------

[...]

 change of polarisation eV/A/(eV/A) component  1 :     4.498    -0.426     0.000
 dielectric tensor                  component  1 :     2.854    -0.176     0.000

 Linear response to external field (no local field effect), progress :

[...]

  energy without entropy =       -2.19390554
point group operations)
 out of a pool of 24 trial point group operations.

[...]

 Linear response to external field (no local field effect), progress :
  Direction:   3
  LATTYP: Found a hexagonal cell.
 ALAT       =     3.1840664647
 C/A-ratio  =    15.7031897903

[...]

The dynamic configuration has the point symmetry C_1h.
 The point group associated with its full space group is C_3v.

[...]

 Free energy of the ion-electron system (eV)
  -Hartree energ DENC   =        -0.24472580
  -V(xc)+E(xc)   XCENC  =         0.05201228
  PAW double counting   =         0.23153392       -0.22973271
  entropy T*S    EENTRO =         0.00000000
  eigenvalues    EBANDS =        -2.02700284
  fre.2940

[...]

  LATTYP: Found a hexagonal cell.

[...]

  energy without entropy =       -2.21792687
the point symmetry C_2v.
 The point group associated with its full space group is D_3h.

[...]

 HEAD OF MICROSCOPIC STATIC DIELECTRIC TENSOR (INDEPENDENT PARTICLE, excluding Hartree and local field effects)
           2.842086     0.000000     0.000000
          -0.000000     2.842086     0.000000
           0.000000     0.000000     1.910895

[...]

The dynamic configuration has the point symmetry C_1h.

[...]

 Free energy of the ion-electron system (eV)

[...]

  energy without entropy =       -2.14309029
 energy    TOTEN  =        -2.21793285 eV

[...]

  energy without entropy =       -2.21487657
CTION 2  (C/m^2)
    -0.06227  0.00000  0.00000
     0.00000  0.06231  0.00000
     0.00000  0.00000  0.00001

[...]

  energy without entropy =       -2.21727696
------------------ Iteration    3(   4)  ---------------------------------------

[...]

  energy without entropy =       -2.21769368
110500

[...]

  energy without entropy =       -2.21777530
ut entropy =       -0.14126862

[...]

  energy without entropy =       -2.21787024
   -0.14127387 eV

[...]

  energy without entropy =       -2.21793403
 energy    TOTEN  =        -0.14127506 eV

[...]

 MACROSCOPIC STATIC DIELECTRIC TENSOR (including local field effects in DFT)
           2.737991    -0.000000     0.000000
           0.000000     2.737991    -0.000000
           0.000000     0.000000     1.113382

[...]

 PIEZOELECTRIC TENSOR  for field in x, y, z        (e  Angst)
          XX          YY          ZZ          XY          YZ          ZX
  x    -0.00265     0.00225    -0.00004    -1.70396     0.00000     0.00000
  y    -1.70626     1.70734     0.00032     0.00000     0.00000     0.00000
  z     0.00000     0.00000     0.00000    -0.00000     0.00000     0.00000

 PIEZOELECTRIC TENSOR  for field in x, y, z        (C/m^2)
          XX          YY          ZZ          XY          YZ          ZX
  x     0.00000     0.00000     0.00000    -0.06224     0.00000     0.00000
  y    -0.06224     0.06224    -0.00000     0.00000     0.00000     0.00000
  z     0.00000     0.00000     0.00000     0.00000    -0.00000     0.00000

 BORN EFFECTIVE CHARGES (in e, cummulative output)
 ion    1
    1    -0.99240    -0.00073     0.00000
    2    -0.00000    -0.99294     0.00000
    3     0.00000    -0.00000    -0.08507
 ion    2
    1     0.49366    -0.00026    -0.00013
    2     0.00000     0.49398     0.00035
    3     0.00000    -0.00000     0.03915
 ion    3
    1     0.49366    -0.00026     0.00013
    2     0.00000     0.49398    -0.00035
    3     0.00000    -0.00000     0.03915

[...]

The dynamic configuration has the point symmetry C_2v.

[...]

 Linear response to external field, progress :
  Direction:   3
  LATTYP: Found a hexagonal cell.
 ALAT       =     3.1840664647
 C/A-ratio  =    15.7031897903

[...]

The dynamic configuration has the point symmetry C_1h.
 The point group associated with its full space group is C_3v.

[...]

----------------------------------------- Iteration    3(  21)  ---------------------------------------

 Broyden mixing:
  rms(total) = 0.85127E-06    rms(broyden)= 0.85107E-06
  rms(prec ) = 0.94922E-06
  weight for this iteration     100.00

 eigenvalues of (default mixing * dielectric matrix)
  average eigenvalue GAMMA=   2.5206
  8.5650  7.3482  5.1418  4.3427  2.9844  2.9844  2.3019  2.0814  1.9078  1.5584
  1.2651  1.2651  0.7540  0.9030  0.9847  0.9847  0.9618  0.9618  0.5951

 Free energy of the ion-electron system (eV)
  -Hartree energ DENC   =        -0.11171446
  -V(xc)+E(xc)   XCENC  =         0.00216193
  PAW double counting   =         0.00362931       -0.00363546
  entropy T*S    EENTRO =         0.00000000
  eigenvalues    EBANDS =        -0.03171637
  free energy    TOTEN  =        -0.14127506 eV

  energy without entropy =       -0.14127506

------------------------ aborting loop because EDIFF is reached ----------------------------------------

 change of polarisation eV/A/(eV/A) component  3 :     0.000     0.000     0.275
 dielectric tensor                  component  3 :     0.000     0.000     1.113

[...]

  Hirshfeld charges:
            ion         q(e)
      1     Mo          0.375
      2     S          -0.188
      3     S          -0.188

  Tkatchenko/Scheffler method for vdW energy calculation

  Parameters of vdW forcefield:
            C6ts              R0ts           ALPHAts        RELVOL
            (au)              (au)            (au)
   Mo       1048.924          4.114         89.283          1.010
   S         133.823          3.854         19.587          0.999
   S         133.823          3.854         19.587          0.999
  Edisp (eV):   -0.59888

 PIEZOELECTRIC TENSOR FIELD DIRECTION 3  (e Angst)
     0.00000  0.00000  0.00000           (  0.00000  0.00000  0.00000)
    -0.00000  0.00000  0.00000           ( -0.00000  0.00000  0.00000)
     0.00000  0.00000  0.00000           (  0.00000  0.00000  0.00000)

 PIEZOELECTRIC TENSOR FIELD DIRECTION 3  (C/m^2)
     0.00000  0.00000  0.00000
    -0.00000  0.00000  0.00000
     0.00000  0.00000  0.00000

      POSITION         DIRECTION 3           BORN EFFECTIVE CHARGE    (rigid.aug.   ionic)
     -0.00000      0.91916     25.00000     0.00000 -0.00000 -0.08507 (  0.17452 14.00000)
      1.59203      1.83832     26.56356     0.00000 -0.00000  0.03915 (  0.66040  6.00000)
      1.59203      1.83832     23.43644     0.00000 -0.00000  0.03915 (  0.66040  6.00000)
    total drift (improves with k-points):   0.00000 -0.00000 -0.00678

[...]

  LATTYP: Found a hexagonal cell.
 ALAT       =     3.1840664647
 C/A-ratio  =    15.7031897903

  Lattice vectors:

 A1 = (   3.1840664647,   0.0000000000,   0.0000000000)
 A2 = (  -1.5920332323,   2.7574824458,   0.0000000000)
 A3 = (   0.0000000000,   0.0000000000,  50.0000000000)

Analysis of symmetry for initial positions (statically):
 Subroutine PRICEL returns:
 Original cell was already a primitive cell.

[...]

The static configuration has the point symmetry C_2v.
 The point group associated with its full space group is D_3h.

Analysis of symmetry for dynamics (positions and initial velocities):
 Subroutine PRICEL returns:
 Original cell was already a primitive cell.

 Routine SETGRP: Setting up the symmetry group for a
 hexagonal supercell.

 Subroutine GETGRP returns: Found 12 space group operations
 (whereof  4 operations were pure point group operations)
 out of a pool of 24 trial point group operations.

The dynamic configuration has the point symmetry C_2v.
 The point group associated with its full space group is D_3h.

 Subroutine INISYM returns: Found 12 space group operations
 (whereof  4 operations are pure point group operations),
 and found     1 'primitive' translations

 MACROSCOPIC STATIC DIELECTRIC TENSOR (including local field effects in DFT)
           2.737991    -0.000000     0.000000
           0.000000     2.737991    -0.000000
           0.000000     0.000000     1.113382

 PIEZOELECTRIC TENSOR  for field in x, y, z        (e  Angst)
          XX          YY          ZZ          XY          YZ          ZX
  x    -0.00265     0.00225    -0.00004    -1.70396     0.00000     0.00000
  y    -1.70626     1.70734     0.00032     0.00000     0.00000     0.00000
  z     0.00000     0.00000     0.00000    -0.00000     0.00000     0.00000

 PIEZOELECTRIC TENSOR  for field in x, y, z        (C/m^2)
          XX          YY          ZZ          XY          YZ          ZX
  x     0.00000     0.00000     0.00000    -0.06224     0.00000     0.00000
  y    -0.06224     0.06224    -0.00000     0.00000     0.00000     0.00000
  z     0.00000     0.00000     0.00000     0.00000    -0.00000     0.00000

 BORN EFFECTIVE CHARGES (in e, cummulative output)
 ion    1
    1    -0.99240    -0.00073     0.00000
    2    -0.00000    -0.99294     0.00000
    3     0.00000    -0.00000    -0.08507
 ion    2
    1     0.49366    -0.00026    -0.00013
    2     0.00000     0.49398     0.00035
    3     0.00000    -0.00000     0.03915
 ion    3
    1     0.49366    -0.00026     0.00013
    2     0.00000     0.49398    -0.00035
    3     0.00000    -0.00000     0.03915

 writing wavefunctions
 BZINTS: Fermi energy: -4.313543; 26.000000 electrons
         Band energy:-535.773118;  BLOECHL correction:  0.000000